ortho_FA0125MA0000Cs0875                
   1.00000000000000     
    10.9438620508111235    0.0010217852748335    0.0954505645208259
     0.0011296572358543    9.7164313677044962   -0.0104959327232926
     0.1612192007116092   -0.0197108682827144   18.4366810451799168
   Pb   I    Cs   C    N    H 
     8    24     7     1     2     5
Direct
  0.1642156331708288  0.1219422073418176  0.4420242392436359
  0.1648272707690104  0.6262241305313140  0.4441326165773419
  0.8380797676528738  0.3728059382395104  0.5633525934753680
  0.8375106247237168  0.8731890488370611  0.5617625802426396
  0.3345061202856941  0.3755675490688041  0.9361729351489296
  0.3370754425847376  0.8738918456968168  0.9403112054320173
  0.6613280805372190  0.1225373524618888  0.0524910138835562
  0.6650030110766455  0.6267623601088351  0.0588705296615013
  0.1640952419976491  0.1253907913809525  0.0014463821278655
  0.1633532595605752  0.6240569806938535  0.0011576051937274
  0.8368196333180796  0.3747411462792249  0.9966332402873572
  0.8371770322467134  0.8746876443976779  0.9946149312784662
  0.3353361895656296  0.3752161517611645  0.5012573000133559
  0.3373826130801722  0.8738897430167396  0.5026433798785478
  0.6647852184154815  0.1155000148442094  0.5086668767825222
  0.6674172913090592  0.6229931484882241  0.5000917363580811
  0.2732040635670656  0.1033288336835372  0.2848610197766598
  0.2846321138024932  0.6303199571248911  0.2866123699535969
  0.7072440169734422  0.3758273266922286  0.7137720336836039
  0.7071899223013010  0.8730602696274732  0.7142158439550471
  0.2052535140762971  0.3748828952850863  0.7852226296292664
  0.2089271147393857  0.8747454743706318  0.7897302083511440
  0.7952953507726332  0.1082548517049802  0.2033325416417101
  0.7924179664877647  0.6244954629693498  0.2081134384971149
  0.0256431457864725  0.1246309081557079  0.6089446580576309
  0.0278003918418456  0.6193537040690852  0.6087162506952087
  0.9839494248573362  0.3746120176422456  0.3945364089481750
  0.9739780999498854  0.8742878737856622  0.3950352405139833
  0.4695432018025604  0.3747885201926293  0.0953327743529035
  0.4737316448933899  0.8761101648814013  0.1063454341038595
  0.5268757596918895  0.1235412937704672  0.8906814078830594
  0.5260255529655232  0.6253607843913354  0.8916041342324862
  0.4237428138683912  0.1247741004286729  0.6735156036550988
  0.4245973059644721  0.6246372987614647  0.6731850439319670
  0.5747678460479059  0.8684225352027709  0.3279921208037144
  0.0727228027334848  0.3731527340038167  0.1722745040996347
  0.0744964974615425  0.8674584104648642  0.1698175180394150
  0.9244591265104181  0.1248180375501782  0.8256913788235671
  0.9235602459096773  0.6250387296709113  0.8259449354237799
  0.5762589022080872  0.3859811357526117  0.3318235121198403
  0.6744671175881648  0.3143152715156367  0.3465282527336775
  0.4997054614028125  0.3562601747847133  0.2803290657147942
  0.5555017974657372  0.4751896092634496  0.3658993611148487
  0.7330194344773385  0.3480130075882233  0.3853073123809823
  0.7059498098559864  0.2374091666662554  0.3125154992679569
  0.5099679669413888  0.2731123871561122  0.2469564357203746
  0.4244362115904411  0.4178125186690870  0.2732007130094981
 
  0.00000000E+00  0.00000000E+00  0.00000000E+00
  0.00000000E+00  0.00000000E+00  0.00000000E+00
  0.00000000E+00  0.00000000E+00  0.00000000E+00
  0.00000000E+00  0.00000000E+00  0.00000000E+00
  0.00000000E+00  0.00000000E+00  0.00000000E+00
  0.00000000E+00  0.00000000E+00  0.00000000E+00
  0.00000000E+00  0.00000000E+00  0.00000000E+00
  0.00000000E+00  0.00000000E+00  0.00000000E+00
  0.00000000E+00  0.00000000E+00  0.00000000E+00
  0.00000000E+00  0.00000000E+00  0.00000000E+00
  0.00000000E+00  0.00000000E+00  0.00000000E+00
  0.00000000E+00  0.00000000E+00  0.00000000E+00
  0.00000000E+00  0.00000000E+00  0.00000000E+00
  0.00000000E+00  0.00000000E+00  0.00000000E+00
  0.00000000E+00  0.00000000E+00  0.00000000E+00
  0.00000000E+00  0.00000000E+00  0.00000000E+00
  0.00000000E+00  0.00000000E+00  0.00000000E+00
  0.00000000E+00  0.00000000E+00  0.00000000E+00
  0.00000000E+00  0.00000000E+00  0.00000000E+00
  0.00000000E+00  0.00000000E+00  0.00000000E+00
  0.00000000E+00  0.00000000E+00  0.00000000E+00
  0.00000000E+00  0.00000000E+00  0.00000000E+00
  0.00000000E+00  0.00000000E+00  0.00000000E+00
  0.00000000E+00  0.00000000E+00  0.00000000E+00
  0.00000000E+00  0.00000000E+00  0.00000000E+00
  0.00000000E+00  0.00000000E+00  0.00000000E+00
  0.00000000E+00  0.00000000E+00  0.00000000E+00
  0.00000000E+00  0.00000000E+00  0.00000000E+00
  0.00000000E+00  0.00000000E+00  0.00000000E+00
  0.00000000E+00  0.00000000E+00  0.00000000E+00
  0.00000000E+00  0.00000000E+00  0.00000000E+00
  0.00000000E+00  0.00000000E+00  0.00000000E+00
  0.00000000E+00  0.00000000E+00  0.00000000E+00
  0.00000000E+00  0.00000000E+00  0.00000000E+00
  0.00000000E+00  0.00000000E+00  0.00000000E+00
  0.00000000E+00  0.00000000E+00  0.00000000E+00
  0.00000000E+00  0.00000000E+00  0.00000000E+00
  0.00000000E+00  0.00000000E+00  0.00000000E+00
  0.00000000E+00  0.00000000E+00  0.00000000E+00
  0.00000000E+00  0.00000000E+00  0.00000000E+00
  0.00000000E+00  0.00000000E+00  0.00000000E+00
  0.00000000E+00  0.00000000E+00  0.00000000E+00
  0.00000000E+00  0.00000000E+00  0.00000000E+00
  0.00000000E+00  0.00000000E+00  0.00000000E+00
  0.00000000E+00  0.00000000E+00  0.00000000E+00
  0.00000000E+00  0.00000000E+00  0.00000000E+00
  0.00000000E+00  0.00000000E+00  0.00000000E+00
