hexa_FA0125MA0000Cs0875                 
   1.00000000000000     
    17.6584629427606572   -0.0002059240884618    0.0000147893343516
    -8.8293911430540355   14.9815323508246330   -0.0004237088331816
     0.0000074530102422   -0.0002300139607751    7.8464685078547012
   Pb   I    N    C    H    Cs
     8    24     2     1     5     7
Direct
  0.4989620145210416  0.4979256395763145  0.9375403165426788
  0.4979106998040801  0.0016045304647039  0.9379156002648719
 -0.0003486683725314  0.4993051391392828  0.9388649949469282
  0.0036815350455404  0.0015976727276969  0.9379174132741058
  0.0036737230940306  0.0016594817796702  0.4403822486997156
 -0.0003137707919655  0.4993729566119873  0.4395988522279615
  0.4979789458241435  0.0016665723946031  0.4403858929896753
  0.4990230977817003  0.4980451594800947  0.4408683774102485
  0.4160181178387155  0.0900866972032117  0.1893188688361853
  0.4107603883806230  0.5817816256139219  0.1894559836880013
  0.9189579900342024  0.0874223814807521  0.1893963527586356
  0.9148882770929528  0.5842869412286819  0.1895427778853376
  0.4135579578860784  0.3271182225024583  0.1896668971852463
  0.3956383469755472  0.8292281743292622  0.1897916124853859
  0.9136947549027443  0.3273872246976909  0.1897503047072947
  0.9336157204752397  0.8292365105186726  0.1897892873073611
  0.1740709065851345  0.0900967810630421  0.1893125194254197
  0.1693994501865806  0.5842908971344611  0.1895289407843602
  0.6684689895036012  0.0874288110314775  0.1894010709019218
  0.6710227050054646  0.5817808843094735  0.1894473326718835
  0.0847529822163016  0.4136589036946560  0.6895278715333240
  0.0867536551038658  0.9148055778445068  0.6894381493103681
  0.5831101460326065  0.4123619250897425  0.6894240040402148
  0.5786957402412912  0.9127265103438582  0.6891340891177147
  0.0870641310372541  0.1727040333684628  0.6897430719298971
  0.0858260540117453  0.6716531899057878  0.6897904787048977
  0.5856457240067692  0.1727020816251702  0.6897406686485037
  0.5846346895210236  0.6692460761257688  0.6896613577601584
  0.3292442283790544  0.4123522540205063  0.6894123534175192
  0.3280394614228297  0.9148071038254691  0.6894458699638597
  0.8288993470768206  0.4136495748991686  0.6895191119855968
  0.8340235934394163  0.9127254084738898  0.6891348501476864
  0.7257531999988467  0.8197493852453797  0.1865493528488438
  0.5939839208052075  0.8197376157805906  0.1865683783991107
  0.6802813772704248  0.8605059971655358  0.1864327337772380
  0.7168537068604852  0.9336602657462169  0.1862441923312658
  0.6975483399897947  0.7514674295823475  0.1867939475306303
  0.7930199091887006  0.8558128580259445  0.1866030682068846
  0.5628313233345447  0.8558189598355319  0.1866364494564635
  0.5539481714480706  0.7514809323886704  0.1868169065788015
  0.1742916270734635  0.8484023419728570  0.1854669201190025
  0.8235406364787846  0.1472333591009514  0.6855220962616836
  0.3267932083570726  0.6563299955680284  0.6855946136459721
  0.6731233476851589  0.3413731868961117  0.1854874979690013
  0.1683772028287339  0.3412958752640421  0.1855180512796686
  0.3261153542891930  0.1524957833067623  0.6854431279307613
  0.8294026219737842  0.6563749788333951  0.6855566322703146
 
  0.00000000E+00  0.00000000E+00  0.00000000E+00
  0.00000000E+00  0.00000000E+00  0.00000000E+00
  0.00000000E+00  0.00000000E+00  0.00000000E+00
  0.00000000E+00  0.00000000E+00  0.00000000E+00
  0.00000000E+00  0.00000000E+00  0.00000000E+00
  0.00000000E+00  0.00000000E+00  0.00000000E+00
  0.00000000E+00  0.00000000E+00  0.00000000E+00
  0.00000000E+00  0.00000000E+00  0.00000000E+00
  0.00000000E+00  0.00000000E+00  0.00000000E+00
  0.00000000E+00  0.00000000E+00  0.00000000E+00
  0.00000000E+00  0.00000000E+00  0.00000000E+00
  0.00000000E+00  0.00000000E+00  0.00000000E+00
  0.00000000E+00  0.00000000E+00  0.00000000E+00
  0.00000000E+00  0.00000000E+00  0.00000000E+00
  0.00000000E+00  0.00000000E+00  0.00000000E+00
  0.00000000E+00  0.00000000E+00  0.00000000E+00
  0.00000000E+00  0.00000000E+00  0.00000000E+00
  0.00000000E+00  0.00000000E+00  0.00000000E+00
  0.00000000E+00  0.00000000E+00  0.00000000E+00
  0.00000000E+00  0.00000000E+00  0.00000000E+00
  0.00000000E+00  0.00000000E+00  0.00000000E+00
  0.00000000E+00  0.00000000E+00  0.00000000E+00
  0.00000000E+00  0.00000000E+00  0.00000000E+00
  0.00000000E+00  0.00000000E+00  0.00000000E+00
  0.00000000E+00  0.00000000E+00  0.00000000E+00
  0.00000000E+00  0.00000000E+00  0.00000000E+00
  0.00000000E+00  0.00000000E+00  0.00000000E+00
  0.00000000E+00  0.00000000E+00  0.00000000E+00
  0.00000000E+00  0.00000000E+00  0.00000000E+00
  0.00000000E+00  0.00000000E+00  0.00000000E+00
  0.00000000E+00  0.00000000E+00  0.00000000E+00
  0.00000000E+00  0.00000000E+00  0.00000000E+00
  0.00000000E+00  0.00000000E+00  0.00000000E+00
  0.00000000E+00  0.00000000E+00  0.00000000E+00
  0.00000000E+00  0.00000000E+00  0.00000000E+00
  0.00000000E+00  0.00000000E+00  0.00000000E+00
  0.00000000E+00  0.00000000E+00  0.00000000E+00
  0.00000000E+00  0.00000000E+00  0.00000000E+00
  0.00000000E+00  0.00000000E+00  0.00000000E+00
  0.00000000E+00  0.00000000E+00  0.00000000E+00
  0.00000000E+00  0.00000000E+00  0.00000000E+00
  0.00000000E+00  0.00000000E+00  0.00000000E+00
  0.00000000E+00  0.00000000E+00  0.00000000E+00
  0.00000000E+00  0.00000000E+00  0.00000000E+00
  0.00000000E+00  0.00000000E+00  0.00000000E+00
  0.00000000E+00  0.00000000E+00  0.00000000E+00
  0.00000000E+00  0.00000000E+00  0.00000000E+00
