hexa_FA0125MA0375Cs0500                 
   1.00000000000000     
    17.5225951284159507    0.0622564962390748    0.4943370538327661
    -8.7219485424295531   14.9346005759982017   -0.0883925813111365
     0.2161815800900807    0.0831153176409174    7.8550222280575532
   Pb   I    N    C    H    Cs
     8    24     5     4    23     4
Direct
  0.5080463402145229  0.5091296416147419  0.9373597093844690
  0.4971086713623365  0.0043585967978359  0.9579812728728386
  0.0053158463541403  0.5014402626746000  0.9398567415508402
  0.0068191261613455  0.0034054736227363  0.9374526665642918
  0.0041168810924922  0.9957377537564659  0.4320427719142920
  0.0057241468143632  0.5050503246473005  0.4361450021560704
  0.4974960244508589  0.0034167105194639  0.4539213854859311
  0.5111807099307316  0.5113555145871430  0.4370414123745426
  0.4222192574251948  0.1008552374685404  0.2279631893075479
  0.4333682481548922  0.6053722859352025  0.2003868000177972
  0.9182975002337799  0.0821382356528974  0.2063338727352353
  0.9153361455841508  0.5817848932635465  0.1945464138217320
  0.4264079573317385  0.3400023370503856  0.1985591147104695
  0.4189958958571915  0.8328804891411441  0.2119713755831645
  0.9269425863014549  0.3296669293189970  0.1986654126425674
  0.9286009161970610  0.8288578171202765  0.1785345341958466
  0.1746062016893816  0.0859362373701534  0.1719197358189293
  0.1749832633960678  0.5989967518502992  0.1661745503718305
  0.6661820538535721  0.0867353663234633  0.1957979262563716
  0.6823197338405882  0.5927101948525529  0.1597723147539013
  0.0959769627009215  0.4190748630566458  0.6685422439844702
  0.0766120076246107  0.9006266294908064  0.6836763829736570
  0.5989925958805710  0.4284003683159238  0.6749782746021628
  0.5809467607599431  0.9172078484578766  0.7014305983620129
  0.1148709331761386  0.1724510656909347  0.6606485893166751
  0.0894939388899750  0.6715311928760838  0.6878442854583255
  0.5745759015377325  0.1750686073633837  0.6995487127883568
  0.5994794368677321  0.6842943058102923  0.6835705931582454
  0.3420507420462145  0.4361815225155687  0.6969623215814424
  0.3226244307943548  0.9155296111200326  0.7387215241993419
  0.8341731982100982  0.4186591233939622  0.7066745825189608
  0.8359399453424421  0.9221272437989754  0.7104956938085534
  0.7802607996537102  0.1847718060417948  0.6856580494864003
  0.9115384682209793  0.1818787246118366  0.6901432242981007
  0.2893338375318056  0.1170717759093305  0.6067732693865785
  0.1467986011587930  0.8287662587973678  0.0917538191497000
  0.1283041699367125  0.3279028221494900  0.2656079745691734
  0.8250325584629717  0.1428187733512830  0.6870794538202392
  0.3461382036831243  0.1704766804965791  0.7461787826922386
  0.1938888811280093  0.8610793675394047  0.2525711662057325
  0.2006064591103885  0.3656497111719338  0.1280378898956424
  0.7880459597984885  0.0697618739606565  0.6860617569869503
  0.8088052310559805  0.2532636976800402  0.6875649583298398
  0.7127073725349974  0.1499098223530223  0.6848828578345290
  0.9411109319453491  0.1439332403503987  0.6885437900288537
  0.9525768205072548  0.2499517007009692  0.6898066671004527
  0.2411650126054267  0.1342114973474483  0.5875337055051419
  0.2558618710690257  0.0491182407664630  0.6369006654777150
  0.3257908277968441  0.1257067770938460  0.4923628889731547
  0.3041879716408354  0.1570342923158466  0.8632977797112555
  0.3955546863234431  0.1506415884733980  0.7631828620351948
  0.3786333648713435  0.2414634891696875  0.7105741591187215
  0.0967409993285757  0.8442012313029952  0.0858578463040096
  0.1177001540438739  0.7600995748180939  0.0825430704013439
  0.1901859976588610  0.8569753441274485  0.9846688415656681
  0.1462148484636687  0.8301055500379579  0.3614372362295191
  0.2452984749487229  0.8427532636453745  0.2538384632611920
  0.2235899861008232  0.9338513616103087  0.2546120757897380
  0.0727801440187930  0.3312953983407272  0.2322527709991909
  0.1474428233981497  0.3620123326811021  0.3792353938332768
  0.1068614423491669  0.2614200375857291  0.2921194711162403
  0.2221432234912865  0.4364913407884128  0.1094968084636809
  0.2556380049465514  0.3580195533284306  0.1666269874875635
  0.1749404385221033  0.3294218882558574  0.0106153544816133
  0.6552764086852493  0.3374645608422230  0.1867639677924401
  0.8241048522415981  0.6656497073334428  0.6947489267912659
  0.3455692524185707  0.6722982726174284  0.6850918787744166
  0.6619359248491391  0.8380320030897606  0.1764794969209738
 
  0.00000000E+00  0.00000000E+00  0.00000000E+00
  0.00000000E+00  0.00000000E+00  0.00000000E+00
  0.00000000E+00  0.00000000E+00  0.00000000E+00
  0.00000000E+00  0.00000000E+00  0.00000000E+00
  0.00000000E+00  0.00000000E+00  0.00000000E+00
  0.00000000E+00  0.00000000E+00  0.00000000E+00
  0.00000000E+00  0.00000000E+00  0.00000000E+00
  0.00000000E+00  0.00000000E+00  0.00000000E+00
  0.00000000E+00  0.00000000E+00  0.00000000E+00
  0.00000000E+00  0.00000000E+00  0.00000000E+00
  0.00000000E+00  0.00000000E+00  0.00000000E+00
  0.00000000E+00  0.00000000E+00  0.00000000E+00
  0.00000000E+00  0.00000000E+00  0.00000000E+00
  0.00000000E+00  0.00000000E+00  0.00000000E+00
  0.00000000E+00  0.00000000E+00  0.00000000E+00
  0.00000000E+00  0.00000000E+00  0.00000000E+00
  0.00000000E+00  0.00000000E+00  0.00000000E+00
  0.00000000E+00  0.00000000E+00  0.00000000E+00
  0.00000000E+00  0.00000000E+00  0.00000000E+00
  0.00000000E+00  0.00000000E+00  0.00000000E+00
  0.00000000E+00  0.00000000E+00  0.00000000E+00
  0.00000000E+00  0.00000000E+00  0.00000000E+00
  0.00000000E+00  0.00000000E+00  0.00000000E+00
  0.00000000E+00  0.00000000E+00  0.00000000E+00
  0.00000000E+00  0.00000000E+00  0.00000000E+00
  0.00000000E+00  0.00000000E+00  0.00000000E+00
  0.00000000E+00  0.00000000E+00  0.00000000E+00
  0.00000000E+00  0.00000000E+00  0.00000000E+00
  0.00000000E+00  0.00000000E+00  0.00000000E+00
  0.00000000E+00  0.00000000E+00  0.00000000E+00
  0.00000000E+00  0.00000000E+00  0.00000000E+00
  0.00000000E+00  0.00000000E+00  0.00000000E+00
  0.00000000E+00  0.00000000E+00  0.00000000E+00
  0.00000000E+00  0.00000000E+00  0.00000000E+00
  0.00000000E+00  0.00000000E+00  0.00000000E+00
  0.00000000E+00  0.00000000E+00  0.00000000E+00
  0.00000000E+00  0.00000000E+00  0.00000000E+00
  0.00000000E+00  0.00000000E+00  0.00000000E+00
  0.00000000E+00  0.00000000E+00  0.00000000E+00
  0.00000000E+00  0.00000000E+00  0.00000000E+00
  0.00000000E+00  0.00000000E+00  0.00000000E+00
  0.00000000E+00  0.00000000E+00  0.00000000E+00
  0.00000000E+00  0.00000000E+00  0.00000000E+00
  0.00000000E+00  0.00000000E+00  0.00000000E+00
  0.00000000E+00  0.00000000E+00  0.00000000E+00
  0.00000000E+00  0.00000000E+00  0.00000000E+00
  0.00000000E+00  0.00000000E+00  0.00000000E+00
  0.00000000E+00  0.00000000E+00  0.00000000E+00
  0.00000000E+00  0.00000000E+00  0.00000000E+00
  0.00000000E+00  0.00000000E+00  0.00000000E+00
  0.00000000E+00  0.00000000E+00  0.00000000E+00
  0.00000000E+00  0.00000000E+00  0.00000000E+00
  0.00000000E+00  0.00000000E+00  0.00000000E+00
  0.00000000E+00  0.00000000E+00  0.00000000E+00
  0.00000000E+00  0.00000000E+00  0.00000000E+00
  0.00000000E+00  0.00000000E+00  0.00000000E+00
  0.00000000E+00  0.00000000E+00  0.00000000E+00
  0.00000000E+00  0.00000000E+00  0.00000000E+00
  0.00000000E+00  0.00000000E+00  0.00000000E+00
  0.00000000E+00  0.00000000E+00  0.00000000E+00
  0.00000000E+00  0.00000000E+00  0.00000000E+00
  0.00000000E+00  0.00000000E+00  0.00000000E+00
  0.00000000E+00  0.00000000E+00  0.00000000E+00
  0.00000000E+00  0.00000000E+00  0.00000000E+00
  0.00000000E+00  0.00000000E+00  0.00000000E+00
  0.00000000E+00  0.00000000E+00  0.00000000E+00
  0.00000000E+00  0.00000000E+00  0.00000000E+00
  0.00000000E+00  0.00000000E+00  0.00000000E+00
