cubic_FA0750MA0000Cs0250                
   1.00000000000000     
    12.8030226288815356   -0.1881076174456509    0.3472293064512823
    -0.1865923686291246   12.7218237165965018   -0.1225616842906315
     0.3439802195749380   -0.1222301862623559   12.7203252453004598
   Cs   I    Pb   C    N    H 
     2    24     8     6    12    30
Direct
  0.2566831426935351  0.2555154820485311  0.7500546153375820
  0.7587634995836388  0.7404913950841947  0.2481768603549639
  0.9930752972138788  0.9801032383752982  0.2384604524173856
  0.0253371488919760  0.0088961535268796  0.7379257995392797
  0.0158740722465181  0.4782048244557877  0.2412613844146110
  0.9930661566591318  0.5059094705089913  0.7429168088489194
  0.5000361278848786  0.9763867910585118  0.2392026367372108
  0.4917825892201714  0.0170450810909799  0.7402795481946033
  0.4935412576161008  0.4879188519019823  0.2445197656966271
  0.5104515310374870  0.4865001317751831  0.7431212903961112
  0.0039467970102268  0.2479457831567931  0.9764069155627001
  0.9880383743007846  0.2499132940712645  0.5104141592105556
  0.9955969058759501  0.7486335557234332  0.9737175478835278
  0.0030101810387061  0.7501430683472493  0.4708323000207238
  0.4847151030008877  0.2449545432353066  0.9892597016191016
  0.4948979937899549  0.2490625993403730  0.5019255706638194
  0.4976325429522563  0.7441281876624879  0.9717501915482953
  0.5105144867027731  0.7495536010034830  0.4874780263404206
  0.2517265355969717  0.4787556542783957  0.5073273747611171
  0.2471905491505614  0.4983466867635735  0.9810307371381290
  0.2596672651035222  0.9721168278874032  0.4960561997434401
  0.2485740803576120  0.9978594291008729  0.0036942151452122
  0.7527202700278093  0.5093221388884001  0.4659310191179682
  0.7457497329198199  0.5124137774508395  0.0096458978792983
  0.7588927896067921  0.9756564801551129  0.5101266939413061
  0.7498322738317578  0.0068847350661974  0.0066024738656929
  0.4988922217992362  0.9939349692549696  0.9876673734083252
  0.5098501049511888  0.0026576459855604  0.4919051609450235
  0.4974603150633757  0.4922465570679363  0.9950558655031945
  0.5030515709650969  0.4993705483164123  0.4945480782382686
  0.0003059422469560  0.9973345145544982  0.9882456772297875
  0.0092610831548727  0.0004145931644246  0.4879810981544612
  0.9923250216176778  0.4936449809459342  0.9916086325098339
  0.0053975498577912  0.5031788898753142  0.4932443062127474
  0.2487623495828288  0.2599881333539162  0.2557478649368187
  0.2481678663149727  0.7390334281453648  0.7654544378983504
  0.2457816353296753  0.7609502069296683  0.2489380428130847
  0.7502364675433798  0.2673320984104394  0.2545531107481319
  0.7361928271236159  0.2532046541786998  0.7596957986361051
  0.7482817334826660  0.7404612290156517  0.7648600837678343
  0.3207981922679035  0.2019559747351468  0.2931887434646787
  0.1985482616941285  0.2369660119683540  0.1706835183839172
  0.3470043908017265  0.7440278012949977  0.7325726923675002
  0.1700695477155686  0.7700483927507530  0.7123745836672922
  0.3004016798638783  0.7034535773860022  0.3093120703539912
  0.2064020498104199  0.7280239458616793  0.1606559532036411
  0.8362779109013149  0.2171817029036598  0.2690938107033858
  0.6698312043906748  0.2282204403724878  0.2054643654119274
  0.8131875443941760  0.1891551451396288  0.7709250287555663
  0.7233676054048139  0.3077557022985285  0.6751593517532957
  0.8428212832473555  0.7601830420209640  0.7238618958684494
  0.6625802291757926  0.7782674018168741  0.7302713324369251
  0.2289409074992986  0.3325257488834730  0.2990604313649582
  0.3585390729140321  0.2265862550140115  0.3589453279252115
  0.3459065882837614  0.1334354172646082  0.2578040851541135
  0.2133695164042863  0.1708150492256148  0.1250423809666623
  0.1430407912530780  0.2860119064388627  0.1467822057341246
  0.2293813262199635  0.7054471894190192  0.8429299273696070
  0.4015039022156752  0.7210631842153795  0.7826721493766815
  0.3729153690829986  0.7718334986041027  0.6603963392115747
  0.1798685898725745  0.8071644628460600  0.6415892784389007
  0.0968324766837823  0.7655049775531029  0.7475546369508180
  0.2320583817348812  0.8420642932743214  0.2748541753725973
  0.3328628298070546  0.7365717309625771  0.3742774461514624
  0.3201014332408502  0.6276618906046878  0.2906706468046922
  0.2168710213641137  0.6536724496639610  0.1294070596356114
  0.1641001616388577  0.7774896027520947  0.1184486025734459
  0.7450799433768747  0.3476014736498148  0.2867567327995763
  0.8934377476471702  0.2530905628197878  0.3112827997243499
  0.8496869919525920  0.1416106281028013  0.2432847618116140
  0.6689287469209325  0.1542161655186386  0.1721334830877107
  0.6069129881640055  0.2737133307223920  0.1956066788822529
  0.6782530243238567  0.2614920128803968  0.8255858667943221
  0.8168306341830995  0.1489556708903539  0.8392847080864100
  0.8714480492446913  0.1778703926886245  0.7139141583588759
  0.7743736355406939  0.3053290497879496  0.6105258389607137
  0.6624055131759914  0.3582649201601202  0.6752898582261450
  0.7403362433800964  0.6885330841510142  0.8326591463779699
  0.9039892838519092  0.7234292217565149  0.7540651447365998
  0.8573684901626398  0.8062836621258563  0.6594303847508386
  0.6633077831362837  0.8282923059286177  0.6681101257272757
  0.5937935329983027  0.7632561912663386  0.7724491128568570
 
  0.00000000E+00  0.00000000E+00  0.00000000E+00
  0.00000000E+00  0.00000000E+00  0.00000000E+00
  0.00000000E+00  0.00000000E+00  0.00000000E+00
  0.00000000E+00  0.00000000E+00  0.00000000E+00
  0.00000000E+00  0.00000000E+00  0.00000000E+00
  0.00000000E+00  0.00000000E+00  0.00000000E+00
  0.00000000E+00  0.00000000E+00  0.00000000E+00
  0.00000000E+00  0.00000000E+00  0.00000000E+00
  0.00000000E+00  0.00000000E+00  0.00000000E+00
  0.00000000E+00  0.00000000E+00  0.00000000E+00
  0.00000000E+00  0.00000000E+00  0.00000000E+00
  0.00000000E+00  0.00000000E+00  0.00000000E+00
  0.00000000E+00  0.00000000E+00  0.00000000E+00
  0.00000000E+00  0.00000000E+00  0.00000000E+00
  0.00000000E+00  0.00000000E+00  0.00000000E+00
  0.00000000E+00  0.00000000E+00  0.00000000E+00
  0.00000000E+00  0.00000000E+00  0.00000000E+00
  0.00000000E+00  0.00000000E+00  0.00000000E+00
  0.00000000E+00  0.00000000E+00  0.00000000E+00
  0.00000000E+00  0.00000000E+00  0.00000000E+00
  0.00000000E+00  0.00000000E+00  0.00000000E+00
  0.00000000E+00  0.00000000E+00  0.00000000E+00
  0.00000000E+00  0.00000000E+00  0.00000000E+00
  0.00000000E+00  0.00000000E+00  0.00000000E+00
  0.00000000E+00  0.00000000E+00  0.00000000E+00
  0.00000000E+00  0.00000000E+00  0.00000000E+00
  0.00000000E+00  0.00000000E+00  0.00000000E+00
  0.00000000E+00  0.00000000E+00  0.00000000E+00
  0.00000000E+00  0.00000000E+00  0.00000000E+00
  0.00000000E+00  0.00000000E+00  0.00000000E+00
  0.00000000E+00  0.00000000E+00  0.00000000E+00
  0.00000000E+00  0.00000000E+00  0.00000000E+00
  0.00000000E+00  0.00000000E+00  0.00000000E+00
  0.00000000E+00  0.00000000E+00  0.00000000E+00
  0.00000000E+00  0.00000000E+00  0.00000000E+00
  0.00000000E+00  0.00000000E+00  0.00000000E+00
  0.00000000E+00  0.00000000E+00  0.00000000E+00
  0.00000000E+00  0.00000000E+00  0.00000000E+00
  0.00000000E+00  0.00000000E+00  0.00000000E+00
  0.00000000E+00  0.00000000E+00  0.00000000E+00
  0.00000000E+00  0.00000000E+00  0.00000000E+00
  0.00000000E+00  0.00000000E+00  0.00000000E+00
  0.00000000E+00  0.00000000E+00  0.00000000E+00
  0.00000000E+00  0.00000000E+00  0.00000000E+00
  0.00000000E+00  0.00000000E+00  0.00000000E+00
  0.00000000E+00  0.00000000E+00  0.00000000E+00
  0.00000000E+00  0.00000000E+00  0.00000000E+00
  0.00000000E+00  0.00000000E+00  0.00000000E+00
  0.00000000E+00  0.00000000E+00  0.00000000E+00
  0.00000000E+00  0.00000000E+00  0.00000000E+00
  0.00000000E+00  0.00000000E+00  0.00000000E+00
  0.00000000E+00  0.00000000E+00  0.00000000E+00
  0.00000000E+00  0.00000000E+00  0.00000000E+00
  0.00000000E+00  0.00000000E+00  0.00000000E+00
  0.00000000E+00  0.00000000E+00  0.00000000E+00
  0.00000000E+00  0.00000000E+00  0.00000000E+00
  0.00000000E+00  0.00000000E+00  0.00000000E+00
  0.00000000E+00  0.00000000E+00  0.00000000E+00
  0.00000000E+00  0.00000000E+00  0.00000000E+00
  0.00000000E+00  0.00000000E+00  0.00000000E+00
  0.00000000E+00  0.00000000E+00  0.00000000E+00
  0.00000000E+00  0.00000000E+00  0.00000000E+00
  0.00000000E+00  0.00000000E+00  0.00000000E+00
  0.00000000E+00  0.00000000E+00  0.00000000E+00
  0.00000000E+00  0.00000000E+00  0.00000000E+00
  0.00000000E+00  0.00000000E+00  0.00000000E+00
  0.00000000E+00  0.00000000E+00  0.00000000E+00
  0.00000000E+00  0.00000000E+00  0.00000000E+00
  0.00000000E+00  0.00000000E+00  0.00000000E+00
  0.00000000E+00  0.00000000E+00  0.00000000E+00
  0.00000000E+00  0.00000000E+00  0.00000000E+00
  0.00000000E+00  0.00000000E+00  0.00000000E+00
  0.00000000E+00  0.00000000E+00  0.00000000E+00
  0.00000000E+00  0.00000000E+00  0.00000000E+00
  0.00000000E+00  0.00000000E+00  0.00000000E+00
  0.00000000E+00  0.00000000E+00  0.00000000E+00
  0.00000000E+00  0.00000000E+00  0.00000000E+00
  0.00000000E+00  0.00000000E+00  0.00000000E+00
  0.00000000E+00  0.00000000E+00  0.00000000E+00
  0.00000000E+00  0.00000000E+00  0.00000000E+00
  0.00000000E+00  0.00000000E+00  0.00000000E+00
  0.00000000E+00  0.00000000E+00  0.00000000E+00
