cubic_FA1000MA0000Cs0000                
   1.00000000000000     
    12.7602418668908140   -0.2780810678791508    0.4096989440789558
    -0.2780917103438273   12.7382187207228004   -0.2636434075359284
     0.4058223235241221   -0.2601980907662045   12.7716122522801108
   Cs   I    Pb   C    N    H 
     0    24     8     8    16    40
Direct
  0.9843680770903103  0.9804163003872342  0.2408103677157959
  0.0212111100678487  0.9856576506880383  0.7380638132058649
  0.0030117222711321  0.4949919408786080  0.2414217133001911
  0.0176810506026695  0.4755094340669807  0.7405946595106897
  0.5050746246445968  0.9641365456815326  0.2354555606115263
  0.5024443975527250 -0.0030161953229804  0.7359940338631015
  0.5154253644375322  0.4881335418130492  0.2370455987862183
  0.5075742686444880  0.4733896282366108  0.7375222740415798
  0.9946735497216155  0.2413768793423875  0.9959752842702805
  0.9925908876430960  0.2427637372389943  0.4870548339256821
  0.0075845034322900  0.7400674309135821  0.9893595765970146
  0.9968187734761411  0.7437395854739498  0.4979314452804864
  0.4959426009325665  0.2463250725193080  0.9957350741387563
  0.5124003417501697  0.2422006563136626  0.4697611552978029
  0.5018353002716006  0.7451597569435053  0.9657161659661434
  0.4897990306803739  0.7447566502169385  0.5033837550670105
  0.2524330528099891  0.4942522929252657  0.4720486723857113
  0.2538405980551292  0.4893159518961198  0.9930237993725061
  0.2545460164993418  0.0216180661200647  0.4842071431982229
  0.2533421710947262  0.0011513698664496  0.0065732225769734
  0.7524436080201223  0.5066594841316709  0.4936444758040953
  0.7545016404093212  0.5143118478989369  0.9912224940565327
  0.7534074393181719  0.0001255870477259  0.5014843516159331
  0.7521606074384929  0.0091705102183727 -0.0013716275475683
  0.5031363339749821  0.9925547104395660  0.9828904426171147
  0.5056709440437452 -0.0045475894608681  0.4857375580986758
  0.5059887019881630  0.4996660518289341  0.9857918345990947
  0.5032522526891364  0.4931888157923843  0.4882307211516224
  0.0067527723157107  0.9911757065736898  0.9897515426681911
  0.0040759769079695  0.9924128778611447  0.4882938208166686
  0.0018528026913531  0.4898874117726327  0.9903617656994940
  0.0050828720501867  0.4933463254815916  0.4944468623695108
  0.7514106502190495  0.2715950066041236  0.2600049400622433
  0.2459404254154676  0.2487922271266725  0.2669038944317826
  0.7526766420767182  0.7539343724124534  0.7676440170364087
  0.2460226267232681  0.2680405768713459  0.7571410897209007
  0.2470228521111990  0.7276136376444085  0.2487249482777508
  0.2329943064684071  0.7457010694651598  0.7561596141635131
  0.7564484869805821  0.2649174714575666  0.7551630450281168
  0.7511328958199082  0.7677145990856632  0.2549400410270344
  0.8303916950970992  0.2111918168431109  0.2699043484242027
  0.6874729575302297  0.2622661678605422  0.1833248969441758
  0.3374508872895602  0.2060072525769894  0.2500236429362707
  0.1983349850953997  0.2984434419893681  0.1968364985096142
  0.8447730336536650  0.7115932572680617  0.7593266039684332
  0.7011670602581019  0.7822648538046236  0.6883051608793667
  0.3230099086066355  0.2118855856228123  0.7839230408177211
  0.1865596239647512  0.2446216150812030  0.6788638816744866
  0.3478830090193782  0.7124286616710204  0.2493900762579994
  0.2075593144295023  0.8178804396997218  0.2293178131291085
  0.2869570650574962  0.6628207118501325  0.7714694844587711
  0.2565687454705106  0.8138071158643634  0.6832733207848797
  0.8269768429090698  0.1985911035515587  0.7770104455489002
  0.7042050025436982  0.2606326679533948  0.6697818186398247
  0.8240451388416962  0.7040263007843574  0.2764894818133009
  0.6971322672856859  0.7597687330401103  0.1706954091382474
  0.7378933667746905  0.3345130950079245  0.3198189466403843
  0.8765746834337377  0.2231604702839494  0.3326163906732355
  0.8490925267597259  0.1508964660331769  0.2177705630819808
  0.6946844410477823  0.2052381728608640  0.1247768954321193
  0.6282060350902865  0.3136493079644403  0.1817187449174441
  0.2056093294917210  0.2416239764011781  0.3444097384979971
  0.3705580163520835  0.1728288000177547  0.3106161597197944
  0.3813958206731007  0.2119524395079486  0.1801776440065729
  0.2319916390373822  0.3136428534772109  0.1238576445652541
  0.1300685400531761  0.3357177880736336  0.2178897743672785
  0.7145787687989574  0.7659226763597368  0.8460521773390667
  0.8809153877347108  0.6958783594916964  0.8258419161202849
  0.8866133052741957  0.7021691249937230  0.6886880502171826
  0.7301340927164330  0.7744370228130341  0.6122129105850973
  0.6313402823974757  0.8185978321564753  0.7015101000002395
  0.2300631172716072  0.3399963866472375  0.8040454238754711
  0.3662548972428589  0.2363380376040474  0.8460702914233852
  0.3447225476528289  0.1433060750353043  0.7456051988346963
  0.1967083625574222  0.1793228399414021  0.6301251329475824
  0.1274236371685213  0.2929658609532478  0.6654902901579747
  0.1921161500899058  0.6612190518638980  0.2652778443469153
  0.3745086613690152  0.6400695154338644  0.2640667689293861
  0.4029558898762730  0.7727878958102535  0.2376423751990268
  0.2536013068822855  0.8820955985974274  0.2081426330405036
  0.1283230354109181  0.8261380745578978  0.2296510139914147
  0.1632884186405933  0.7585150714007592  0.8086353181786448
  0.2642285798714324  0.6146642008210113  0.8321051502532434
  0.3540897010187944  0.6442120439371908  0.7277634561806978
  0.3208253386177712  0.8066604481825294  0.6312443754560939
  0.2093862956816926  0.8757537990730538  0.6773787127451671
  0.7397137248781958  0.3289542463572583  0.8126373598977781
  0.8657796724015040  0.2093060438331828  0.8448674607928441
  0.8482099324020719  0.1365870667043627  0.7282238307897405
  0.7146436422939657  0.2033066942886025  0.6118100988556779
  0.6498326874883514  0.3156713660254168  0.6603294100719527
  0.7336933273567037  0.8323770923524898  0.3115677584710225
  0.8632479816680575  0.7160651376946906  0.3437698632251165
  0.8464265831692676  0.6419176128394403  0.2282857662928929
  0.7083082917005167  0.7014735309758375  0.1138007602871788
  0.6416946208232522  0.8137365641359704  0.1610573270715368
 
  0.00000000E+00  0.00000000E+00  0.00000000E+00
  0.00000000E+00  0.00000000E+00  0.00000000E+00
  0.00000000E+00  0.00000000E+00  0.00000000E+00
  0.00000000E+00  0.00000000E+00  0.00000000E+00
  0.00000000E+00  0.00000000E+00  0.00000000E+00
  0.00000000E+00  0.00000000E+00  0.00000000E+00
  0.00000000E+00  0.00000000E+00  0.00000000E+00
  0.00000000E+00  0.00000000E+00  0.00000000E+00
  0.00000000E+00  0.00000000E+00  0.00000000E+00
  0.00000000E+00  0.00000000E+00  0.00000000E+00
  0.00000000E+00  0.00000000E+00  0.00000000E+00
  0.00000000E+00  0.00000000E+00  0.00000000E+00
  0.00000000E+00  0.00000000E+00  0.00000000E+00
  0.00000000E+00  0.00000000E+00  0.00000000E+00
  0.00000000E+00  0.00000000E+00  0.00000000E+00
  0.00000000E+00  0.00000000E+00  0.00000000E+00
  0.00000000E+00  0.00000000E+00  0.00000000E+00
  0.00000000E+00  0.00000000E+00  0.00000000E+00
  0.00000000E+00  0.00000000E+00  0.00000000E+00
  0.00000000E+00  0.00000000E+00  0.00000000E+00
  0.00000000E+00  0.00000000E+00  0.00000000E+00
  0.00000000E+00  0.00000000E+00  0.00000000E+00
  0.00000000E+00  0.00000000E+00  0.00000000E+00
  0.00000000E+00  0.00000000E+00  0.00000000E+00
  0.00000000E+00  0.00000000E+00  0.00000000E+00
  0.00000000E+00  0.00000000E+00  0.00000000E+00
  0.00000000E+00  0.00000000E+00  0.00000000E+00
  0.00000000E+00  0.00000000E+00  0.00000000E+00
  0.00000000E+00  0.00000000E+00  0.00000000E+00
  0.00000000E+00  0.00000000E+00  0.00000000E+00
  0.00000000E+00  0.00000000E+00  0.00000000E+00
  0.00000000E+00  0.00000000E+00  0.00000000E+00
  0.00000000E+00  0.00000000E+00  0.00000000E+00
  0.00000000E+00  0.00000000E+00  0.00000000E+00
  0.00000000E+00  0.00000000E+00  0.00000000E+00
  0.00000000E+00  0.00000000E+00  0.00000000E+00
  0.00000000E+00  0.00000000E+00  0.00000000E+00
  0.00000000E+00  0.00000000E+00  0.00000000E+00
  0.00000000E+00  0.00000000E+00  0.00000000E+00
  0.00000000E+00  0.00000000E+00  0.00000000E+00
  0.00000000E+00  0.00000000E+00  0.00000000E+00
  0.00000000E+00  0.00000000E+00  0.00000000E+00
  0.00000000E+00  0.00000000E+00  0.00000000E+00
  0.00000000E+00  0.00000000E+00  0.00000000E+00
  0.00000000E+00  0.00000000E+00  0.00000000E+00
  0.00000000E+00  0.00000000E+00  0.00000000E+00
  0.00000000E+00  0.00000000E+00  0.00000000E+00
  0.00000000E+00  0.00000000E+00  0.00000000E+00
  0.00000000E+00  0.00000000E+00  0.00000000E+00
  0.00000000E+00  0.00000000E+00  0.00000000E+00
  0.00000000E+00  0.00000000E+00  0.00000000E+00
  0.00000000E+00  0.00000000E+00  0.00000000E+00
  0.00000000E+00  0.00000000E+00  0.00000000E+00
  0.00000000E+00  0.00000000E+00  0.00000000E+00
  0.00000000E+00  0.00000000E+00  0.00000000E+00
  0.00000000E+00  0.00000000E+00  0.00000000E+00
  0.00000000E+00  0.00000000E+00  0.00000000E+00
  0.00000000E+00  0.00000000E+00  0.00000000E+00
  0.00000000E+00  0.00000000E+00  0.00000000E+00
  0.00000000E+00  0.00000000E+00  0.00000000E+00
  0.00000000E+00  0.00000000E+00  0.00000000E+00
  0.00000000E+00  0.00000000E+00  0.00000000E+00
  0.00000000E+00  0.00000000E+00  0.00000000E+00
  0.00000000E+00  0.00000000E+00  0.00000000E+00
  0.00000000E+00  0.00000000E+00  0.00000000E+00
  0.00000000E+00  0.00000000E+00  0.00000000E+00
  0.00000000E+00  0.00000000E+00  0.00000000E+00
  0.00000000E+00  0.00000000E+00  0.00000000E+00
  0.00000000E+00  0.00000000E+00  0.00000000E+00
  0.00000000E+00  0.00000000E+00  0.00000000E+00
  0.00000000E+00  0.00000000E+00  0.00000000E+00
  0.00000000E+00  0.00000000E+00  0.00000000E+00
  0.00000000E+00  0.00000000E+00  0.00000000E+00
  0.00000000E+00  0.00000000E+00  0.00000000E+00
  0.00000000E+00  0.00000000E+00  0.00000000E+00
  0.00000000E+00  0.00000000E+00  0.00000000E+00
  0.00000000E+00  0.00000000E+00  0.00000000E+00
  0.00000000E+00  0.00000000E+00  0.00000000E+00
  0.00000000E+00  0.00000000E+00  0.00000000E+00
  0.00000000E+00  0.00000000E+00  0.00000000E+00
  0.00000000E+00  0.00000000E+00  0.00000000E+00
  0.00000000E+00  0.00000000E+00  0.00000000E+00
  0.00000000E+00  0.00000000E+00  0.00000000E+00
  0.00000000E+00  0.00000000E+00  0.00000000E+00
  0.00000000E+00  0.00000000E+00  0.00000000E+00
  0.00000000E+00  0.00000000E+00  0.00000000E+00
  0.00000000E+00  0.00000000E+00  0.00000000E+00
  0.00000000E+00  0.00000000E+00  0.00000000E+00
  0.00000000E+00  0.00000000E+00  0.00000000E+00
  0.00000000E+00  0.00000000E+00  0.00000000E+00
  0.00000000E+00  0.00000000E+00  0.00000000E+00
  0.00000000E+00  0.00000000E+00  0.00000000E+00
  0.00000000E+00  0.00000000E+00  0.00000000E+00
  0.00000000E+00  0.00000000E+00  0.00000000E+00
  0.00000000E+00  0.00000000E+00  0.00000000E+00
  0.00000000E+00  0.00000000E+00  0.00000000E+00
