hexa_FA0875MA0125Cs0000                 
   1.00000000000000     
    19.0658760190332046   -0.0183065998773891    0.0151228351238985
    -9.5469403102560602   14.5432868227345971   -0.0067526256390076
     0.0061356291263281    0.0004510584261507    7.7276991046708989
   Pb   I    N    C    H 
     8    24    15     8    41
Direct
  0.5013745593028337  0.5011910725648142  0.9370661724959322
  0.4999037258683242 -0.0001583119202484  0.9389228414122119
  0.0002243291713687  0.5011475062215828  0.9376574684589541
 -0.0006503772623950 -0.0018017942743069  0.9358993099410918
 -0.0000790888139737 -0.0009578295151363  0.4415688905822208
  0.0002692119550349  0.5013158382728268  0.4406603875577575
  0.4999557062177251 -0.0000456543630721  0.4392112836553138
  0.5006864218121874  0.5009265250680134  0.4406052292424509
  0.4192704670387253  0.0811540764097026  0.1893553654993992
  0.4198976360797827  0.5811722197366078  0.1877380505312800
  0.9186445978510845  0.0803616757944578  0.1885045842797694
  0.9160257131684533  0.5817548200834023  0.1992338210484404
  0.4113628669440007  0.3221921145473757  0.1885738298186456
  0.4107389804022574  0.8213630821172955  0.1897025867883105
  0.9109640204345599  0.3221747359401938  0.1890724970944652
  0.9096283671321829  0.8192495221291062  0.1967938190803356
  0.1620626848622206  0.0808589319901482  0.1873529553216521
  0.1621935813362583  0.5815104480259361  0.1875170413117699
  0.6620826659993987  0.0813025114537236  0.1885251171338654
  0.6649760228622207  0.5812085969101908  0.1959998087015982
  0.0804709063060426  0.4202211281403070  0.6921964061104071
  0.0769711720392745  0.9150454744744723  0.6885000314804511
  0.5836837799443733  0.4208265793666438  0.6854440924563265
  0.5806497088505969  0.9186396203680460  0.6886185092572450
  0.0887097866090158  0.1777704920068809  0.6929345214154969
  0.0845887790281356  0.6779119270394451  0.6897099557028270
  0.5890710151553595  0.1785171336671267  0.6895192852490122
  0.5943517307502248  0.6781695766841063  0.6890770229720267
  0.3396788470923518  0.4197010053037113  0.6925418866270765
  0.3378297662682853  0.9185645642189323  0.6893940519609711
  0.8376744052236392  0.4135849226072527  0.6877406236471171
  0.8371906444466934  0.9101413455800801  0.6872422129192743
  0.2208957266008946  0.3196667225308339  0.1866849818145273
  0.2213090496544178  0.8202127765474184  0.1865225883535367
  0.7209367672580115  0.3194330795124209  0.1862767357710270
  0.7213260000908691  0.8205775296731663  0.1859000796617077
  0.0985802921347552  0.3195891178524124  0.1866635552094170
  0.0991481160886702  0.8203650692263474  0.1860221111715964
  0.5986262514904100  0.3193717600913372  0.1861849707293725
  0.5989480177399467  0.8203065503101743  0.1865277319864593
  0.2784947056456205  0.1793443041257698  0.6863046543989749
  0.2789844812891816  0.6803410325856305  0.6864305899286265
  0.7785593248225006  0.1790174813061086  0.6865141873746765
  0.4010066674363258  0.1798064377226938  0.6865119420288137
  0.4013019329535066  0.6803550361812565  0.6864996473286585
  0.9009387872272937  0.1794193591420613  0.6864087280796924
  0.8127486998264619  0.6492196300143944  0.5918141447455876
  0.1805678691499985  0.3612008006045512  0.1864217926546102
  0.1811377350819058  0.8618942306003552  0.1862081150865838
  0.6806033344398246  0.3608692252002885  0.1857715909014002
  0.6809554208069452  0.8620535459237072  0.1861797663794070
  0.3189340234331834  0.1379803649387947  0.6863268220573752
  0.3192456200791580  0.6387710143086281  0.6863334219770655
  0.8188778877561207  0.1375374615119505  0.6862821679090546
  0.8264296264338068  0.6339145565718239  0.7762877072117592
  0.2183115004946881  0.4365575637025833  0.1860324473835852
  0.2188776777260160  0.9372347888916612  0.1860778855957076
  0.7184220970277105  0.4362427742414536  0.1849805197684195
  0.7187622571020704  0.9373975388376865  0.1861256937831206
  0.2812358392545132  0.0626358659708617  0.6861863051220271
  0.2814335597531178  0.5634077179039368  0.6861361747240784
  0.7812412453850888  0.0622145106173508  0.6859641376637251
  0.1915852544013937  0.2492142261972562  0.1867116039464343
  0.1919314004130698  0.7497935901606384  0.1866901347594536
  0.6916530498139977  0.2489844555218321  0.1869721792465807
  0.6920505708139180  0.7502865689960893  0.1862805116671224
  0.2851319116680487  0.3573755976279357  0.1863319226961689
  0.2855297669305639  0.8578062681620784  0.1865917481725674
  0.7852013864890125  0.3570296372109236  0.1864185825156607
  0.7855512445245655  0.8584254341532027  0.1860997786063671
  0.0720752821189110  0.3572253733080576  0.1863642613402549
  0.0728668979942129  0.8581767730517478  0.1865156689071777
  0.5720738984255797  0.3569409311317096  0.1862431167340814
  0.5723388662506035  0.8578095375774702  0.1866334173477446
  0.0573025317273627  0.2491241135242403  0.1867138286112648
  0.0579232858232664  0.7500431218716048  0.1867527286397431
  0.5572933389438431  0.2489212308540853  0.1870054481713675
  0.5577844882220857  0.7498844279468028  0.1866743455155164
  0.3077347324615358  0.2496882924984565  0.6868951733899883
  0.3083710293211824  0.7507978039590792  0.6867903647295085
  0.8079161172894188  0.2495478722651442  0.6867669627176032
  0.2142479876180434  0.1414397348713179  0.6865234142490805
  0.2147315619270026  0.6428580891861529  0.6865152210064170
  0.7143510245697460  0.1414242974165209  0.6864740339085093
  0.4276300318855594  0.1423169032879937  0.6865496216575750
  0.4278426961343665  0.6428128508756137  0.6865441466212477
  0.9276878032578939  0.1420895012868712  0.6864725545675721
  0.4421325032924977  0.2501536616533146  0.6862899674218824
  0.4425540629659817  0.7508119180456084  0.6868142537988401
  0.9418890441265989  0.2498174876748087  0.6870009280981221
  0.8073849097127566  0.7051159840293670  0.5804939473734066
  0.7579728702367660  0.5924795582165236  0.5426368088988962
  0.8615364770403980  0.6613834048901969  0.5121139950450226
  0.7712109705424086  0.6176501136615217  0.8518283831073197
  0.8342454026219829  0.5760363127175179  0.7799215657817493
  0.8828241272700172  0.6965849136214910  0.8249472830982172
 
  0.00000000E+00  0.00000000E+00  0.00000000E+00
  0.00000000E+00  0.00000000E+00  0.00000000E+00
  0.00000000E+00  0.00000000E+00  0.00000000E+00
  0.00000000E+00  0.00000000E+00  0.00000000E+00
  0.00000000E+00  0.00000000E+00  0.00000000E+00
  0.00000000E+00  0.00000000E+00  0.00000000E+00
  0.00000000E+00  0.00000000E+00  0.00000000E+00
  0.00000000E+00  0.00000000E+00  0.00000000E+00
  0.00000000E+00  0.00000000E+00  0.00000000E+00
  0.00000000E+00  0.00000000E+00  0.00000000E+00
  0.00000000E+00  0.00000000E+00  0.00000000E+00
  0.00000000E+00  0.00000000E+00  0.00000000E+00
  0.00000000E+00  0.00000000E+00  0.00000000E+00
  0.00000000E+00  0.00000000E+00  0.00000000E+00
  0.00000000E+00  0.00000000E+00  0.00000000E+00
  0.00000000E+00  0.00000000E+00  0.00000000E+00
  0.00000000E+00  0.00000000E+00  0.00000000E+00
  0.00000000E+00  0.00000000E+00  0.00000000E+00
  0.00000000E+00  0.00000000E+00  0.00000000E+00
  0.00000000E+00  0.00000000E+00  0.00000000E+00
  0.00000000E+00  0.00000000E+00  0.00000000E+00
  0.00000000E+00  0.00000000E+00  0.00000000E+00
  0.00000000E+00  0.00000000E+00  0.00000000E+00
  0.00000000E+00  0.00000000E+00  0.00000000E+00
  0.00000000E+00  0.00000000E+00  0.00000000E+00
  0.00000000E+00  0.00000000E+00  0.00000000E+00
  0.00000000E+00  0.00000000E+00  0.00000000E+00
  0.00000000E+00  0.00000000E+00  0.00000000E+00
  0.00000000E+00  0.00000000E+00  0.00000000E+00
  0.00000000E+00  0.00000000E+00  0.00000000E+00
  0.00000000E+00  0.00000000E+00  0.00000000E+00
  0.00000000E+00  0.00000000E+00  0.00000000E+00
  0.00000000E+00  0.00000000E+00  0.00000000E+00
  0.00000000E+00  0.00000000E+00  0.00000000E+00
  0.00000000E+00  0.00000000E+00  0.00000000E+00
  0.00000000E+00  0.00000000E+00  0.00000000E+00
  0.00000000E+00  0.00000000E+00  0.00000000E+00
  0.00000000E+00  0.00000000E+00  0.00000000E+00
  0.00000000E+00  0.00000000E+00  0.00000000E+00
  0.00000000E+00  0.00000000E+00  0.00000000E+00
  0.00000000E+00  0.00000000E+00  0.00000000E+00
  0.00000000E+00  0.00000000E+00  0.00000000E+00
  0.00000000E+00  0.00000000E+00  0.00000000E+00
  0.00000000E+00  0.00000000E+00  0.00000000E+00
  0.00000000E+00  0.00000000E+00  0.00000000E+00
  0.00000000E+00  0.00000000E+00  0.00000000E+00
  0.00000000E+00  0.00000000E+00  0.00000000E+00
  0.00000000E+00  0.00000000E+00  0.00000000E+00
  0.00000000E+00  0.00000000E+00  0.00000000E+00
  0.00000000E+00  0.00000000E+00  0.00000000E+00
  0.00000000E+00  0.00000000E+00  0.00000000E+00
  0.00000000E+00  0.00000000E+00  0.00000000E+00
  0.00000000E+00  0.00000000E+00  0.00000000E+00
  0.00000000E+00  0.00000000E+00  0.00000000E+00
  0.00000000E+00  0.00000000E+00  0.00000000E+00
  0.00000000E+00  0.00000000E+00  0.00000000E+00
  0.00000000E+00  0.00000000E+00  0.00000000E+00
  0.00000000E+00  0.00000000E+00  0.00000000E+00
  0.00000000E+00  0.00000000E+00  0.00000000E+00
  0.00000000E+00  0.00000000E+00  0.00000000E+00
  0.00000000E+00  0.00000000E+00  0.00000000E+00
  0.00000000E+00  0.00000000E+00  0.00000000E+00
  0.00000000E+00  0.00000000E+00  0.00000000E+00
  0.00000000E+00  0.00000000E+00  0.00000000E+00
  0.00000000E+00  0.00000000E+00  0.00000000E+00
  0.00000000E+00  0.00000000E+00  0.00000000E+00
  0.00000000E+00  0.00000000E+00  0.00000000E+00
  0.00000000E+00  0.00000000E+00  0.00000000E+00
  0.00000000E+00  0.00000000E+00  0.00000000E+00
  0.00000000E+00  0.00000000E+00  0.00000000E+00
  0.00000000E+00  0.00000000E+00  0.00000000E+00
  0.00000000E+00  0.00000000E+00  0.00000000E+00
  0.00000000E+00  0.00000000E+00  0.00000000E+00
  0.00000000E+00  0.00000000E+00  0.00000000E+00
  0.00000000E+00  0.00000000E+00  0.00000000E+00
  0.00000000E+00  0.00000000E+00  0.00000000E+00
  0.00000000E+00  0.00000000E+00  0.00000000E+00
  0.00000000E+00  0.00000000E+00  0.00000000E+00
  0.00000000E+00  0.00000000E+00  0.00000000E+00
  0.00000000E+00  0.00000000E+00  0.00000000E+00
  0.00000000E+00  0.00000000E+00  0.00000000E+00
  0.00000000E+00  0.00000000E+00  0.00000000E+00
  0.00000000E+00  0.00000000E+00  0.00000000E+00
  0.00000000E+00  0.00000000E+00  0.00000000E+00
  0.00000000E+00  0.00000000E+00  0.00000000E+00
  0.00000000E+00  0.00000000E+00  0.00000000E+00
  0.00000000E+00  0.00000000E+00  0.00000000E+00
  0.00000000E+00  0.00000000E+00  0.00000000E+00
  0.00000000E+00  0.00000000E+00  0.00000000E+00
  0.00000000E+00  0.00000000E+00  0.00000000E+00
  0.00000000E+00  0.00000000E+00  0.00000000E+00
  0.00000000E+00  0.00000000E+00  0.00000000E+00
  0.00000000E+00  0.00000000E+00  0.00000000E+00
  0.00000000E+00  0.00000000E+00  0.00000000E+00
  0.00000000E+00  0.00000000E+00  0.00000000E+00
  0.00000000E+00  0.00000000E+00  0.00000000E+00
