cubic_FA0500MA0500Cs0000kicked          
   1.00000000000000     
    12.7495874620952403   -0.1775345012422748    0.1660329504946563
    -0.1793524005034404   12.6915747588051140   -0.2402882597494383
     0.1667159134373490   -0.2399367261679828   12.6894750748504173
   Cs   I    Pb   C    N    H 
     0    24     8     8    12    44
Direct
  0.0456385275184342  0.0203202012334607  0.2444612183991080
  0.0152393569305578  0.9933837375343786  0.7459553389927546
  0.0432092809634773  0.4822986442920469  0.2392361484774883
  0.9660854724098091  0.5234114005659691  0.7444376313422471
  0.5288454401963660  0.9840611217984285  0.2512519932635817
  0.5286197042567755  0.0217719249560364  0.7523136562806092
  0.4835654270122679  0.5133411931954004  0.2473205654118097
  0.5457729126862169  0.4926620752195803  0.7456787321994056
  0.9972865145955572  0.2424490709350431  0.0000748399030959
  0.0174522535768340  0.2645571170667418  0.5095302205235410
  0.0106291958535152  0.7424621755988520  0.0100997771257335
  0.0097865727065657  0.7636643093894939  0.4672218565399062
  0.4833364345532238  0.2409983529565385  0.0259249011065204
  0.5065713780354651  0.2587101752846853  0.4838871498170619
  0.5114060827233793  0.7384588044424036  0.0037228176999052
  0.5083825203777576  0.7583153944885158  0.5425087076992741
  0.2541839064853604  0.5305863363471887  0.5161395111111087
  0.2553834300891917  0.4807074791178399 -0.0269622372263825
  0.2709608957866140  0.0133454878498794  0.4980807807417839
  0.2610428556179923  0.9750841018287170  0.0003501332039590
  0.7544734877468321  0.5194282411269433  0.4603642594330583
  0.7564411098841756  0.5019427255804406  0.0135176020789528
  0.7721623152748088  0.0278469077137786  0.4895722462332568
  0.7625837121837521  0.9653084989315794  0.9864986031762528
  0.5102023535063877  0.9920276700714745  0.0030339898754909
  0.5175190548776547  0.0055769494849110  0.4997984971787182
  0.5015366491439586  0.4893328191567116  0.9946331246034021
  0.5038312513313333  0.5104870303347102  0.4964671346880707
  0.0100318274759906  0.9907436009082073 -0.0042813636053619
  0.0229767669518141  0.0144479737303416  0.4954985805142218
  0.0073251760690705  0.4950885818458399  0.9867079134878453
  0.0069044129455590  0.5102720058220284  0.4941469429240783
  0.7394739839693429  0.2404676408084925  0.2699070032575202
  0.2402851268886926  0.2454733117035551  0.7502718476358442
  0.2382048482002353  0.7467301491980339  0.7674119735290850
  0.7517018590607383  0.2681657252685639  0.7525857424785276
  0.2887361392565595  0.7599270748944584  0.2661333747993757
  0.7750493957801954  0.7887146070445451  0.2588743324466949
  0.7800109863438649  0.7723848019917543  0.7063654518558349
  0.2777147469560175  0.2567918959938646  0.2865387185424809
  0.8341240809899053  0.2046532372699789  0.2512846135008167
  0.6972852004464710  0.3159588934113868  0.2188396139681140
  0.2852435393249424  0.1647214903238407  0.7901406021072812
  0.2782194790306084  0.2976323180379966  0.6696877994799695
  0.3120972305953476  0.6779578480866428  0.7766380405784555
  0.2353024345956816  0.8144207670477487  0.6920038524670745
  0.7922419928440310  0.1891831908654520  0.8001890782600006
  0.7439910194411118  0.2736170759487282  0.6501884416368494
  0.1773735703943959  0.7406633743660093  0.2368305865190959
  0.7171483077828329  0.6862745815223777  0.2399569482858764
  0.7255119903600369  0.7305051429280062  0.8023011765709607
  0.2305718429216805  0.2435443581215719  0.1802354557391334
  0.6921006616244956  0.2045912376535725  0.3330691608525580
  0.8600577275745790  0.1452824264060752  0.2951425172427886
  0.8835396814381238  0.2317812109011470  0.1925828167916426
  0.7356522358342416  0.3553749297761504  0.1594138548377718
  0.6236587290550417  0.3405316357923383  0.2395196692017602
  0.1662263747392859  0.2709856414316107  0.7868054716217667
  0.2515384331145217  0.1268238700139704  0.8527507213484384
  0.3554148886380612  0.1351979545303147  0.7615370729940784
  0.3456680745648252  0.2766459632275671  0.6288594531476567
  0.2389593016867093  0.3595062701473386  0.6413964075888114
  0.1743325271558839  0.7476171579055449  0.8268125239725825
  0.3060447754245849  0.6252126352224050  0.8359154796130632
  0.3739363355050537  0.6722212638991680  0.7238745399242933
  0.2919112737785007  0.8188200403916567  0.6334794019895872
  0.1759086357571747  0.8672266445109402  0.6924985664766131
  0.7218426747752997  0.3339423757475170  0.8016615884349286
  0.7967453494823584  0.1908712053887981  0.8801826498134275
  0.8238701361114997  0.1255885157281349  0.7603254086777607
  0.7668115082039724  0.2133016590907522  0.5987561038672160
  0.7099186955002222  0.3371731960162641  0.6197389343866218
  0.1609346176139099  0.7680034005997742  0.1631484869306589
  0.1262674606275631  0.7763706898338280  0.2920249370028966
  0.1555788984740094  0.6606487666429738  0.2354191759745114
  0.3078987659278143  0.8443654461009373  0.2627912414344698
  0.2981261505826042  0.7333757312885689  0.3464530793126125
  0.3395033315208973  0.7152978127239331  0.2107681175097084
  0.6377038250038046  0.6958949250957496  0.2303771822625257
  0.7247942145854556  0.6364690480524768  0.3032885553719522
  0.7439225145967976  0.6452927797536543  0.1724075578105665
  0.7418815540320376  0.8280079965322686  0.3299146556898342
  0.8577859438793036  0.7727115938125240  0.2704827245252936
  0.7662477817730131  0.8379263934091863  0.1905799486199205
  0.6468127523906082  0.7133018075558997  0.7900158201206112
  0.7298794620778916  0.7851502851672680  0.8655844550793029
  0.7582255300331741  0.6612252580252042  0.8244291182204543
  0.7470647630200755  0.8487856508260775  0.6904238094817936
  0.8637951498449404  0.7818089040880030  0.7220367283259614
  0.7674139233861339  0.7163679921449685  0.6399248444207788
  0.1968852409345226  0.3124397148916624  0.1582309230884744
  0.1722749166922178  0.1843875629551953  0.1801310861476291
  0.2877755281938472  0.2234902606190347  0.1233849834175538
  0.2187712519266481  0.2896390820743439  0.3419350849734273
  0.3010441703197604  0.1794050982778425  0.3115710069125324
  0.3461599662893315  0.3104065535601857  0.2807133259176363
 
  0.00000000E+00  0.00000000E+00  0.00000000E+00
  0.00000000E+00  0.00000000E+00  0.00000000E+00
  0.00000000E+00  0.00000000E+00  0.00000000E+00
  0.00000000E+00  0.00000000E+00  0.00000000E+00
  0.00000000E+00  0.00000000E+00  0.00000000E+00
  0.00000000E+00  0.00000000E+00  0.00000000E+00
  0.00000000E+00  0.00000000E+00  0.00000000E+00
  0.00000000E+00  0.00000000E+00  0.00000000E+00
  0.00000000E+00  0.00000000E+00  0.00000000E+00
  0.00000000E+00  0.00000000E+00  0.00000000E+00
  0.00000000E+00  0.00000000E+00  0.00000000E+00
  0.00000000E+00  0.00000000E+00  0.00000000E+00
  0.00000000E+00  0.00000000E+00  0.00000000E+00
  0.00000000E+00  0.00000000E+00  0.00000000E+00
  0.00000000E+00  0.00000000E+00  0.00000000E+00
  0.00000000E+00  0.00000000E+00  0.00000000E+00
  0.00000000E+00  0.00000000E+00  0.00000000E+00
  0.00000000E+00  0.00000000E+00  0.00000000E+00
  0.00000000E+00  0.00000000E+00  0.00000000E+00
  0.00000000E+00  0.00000000E+00  0.00000000E+00
  0.00000000E+00  0.00000000E+00  0.00000000E+00
  0.00000000E+00  0.00000000E+00  0.00000000E+00
  0.00000000E+00  0.00000000E+00  0.00000000E+00
  0.00000000E+00  0.00000000E+00  0.00000000E+00
  0.00000000E+00  0.00000000E+00  0.00000000E+00
  0.00000000E+00  0.00000000E+00  0.00000000E+00
  0.00000000E+00  0.00000000E+00  0.00000000E+00
  0.00000000E+00  0.00000000E+00  0.00000000E+00
  0.00000000E+00  0.00000000E+00  0.00000000E+00
  0.00000000E+00  0.00000000E+00  0.00000000E+00
  0.00000000E+00  0.00000000E+00  0.00000000E+00
  0.00000000E+00  0.00000000E+00  0.00000000E+00
  0.00000000E+00  0.00000000E+00  0.00000000E+00
  0.00000000E+00  0.00000000E+00  0.00000000E+00
  0.00000000E+00  0.00000000E+00  0.00000000E+00
  0.00000000E+00  0.00000000E+00  0.00000000E+00
  0.00000000E+00  0.00000000E+00  0.00000000E+00
  0.00000000E+00  0.00000000E+00  0.00000000E+00
  0.00000000E+00  0.00000000E+00  0.00000000E+00
  0.00000000E+00  0.00000000E+00  0.00000000E+00
  0.00000000E+00  0.00000000E+00  0.00000000E+00
  0.00000000E+00  0.00000000E+00  0.00000000E+00
  0.00000000E+00  0.00000000E+00  0.00000000E+00
  0.00000000E+00  0.00000000E+00  0.00000000E+00
  0.00000000E+00  0.00000000E+00  0.00000000E+00
  0.00000000E+00  0.00000000E+00  0.00000000E+00
  0.00000000E+00  0.00000000E+00  0.00000000E+00
  0.00000000E+00  0.00000000E+00  0.00000000E+00
  0.00000000E+00  0.00000000E+00  0.00000000E+00
  0.00000000E+00  0.00000000E+00  0.00000000E+00
  0.00000000E+00  0.00000000E+00  0.00000000E+00
  0.00000000E+00  0.00000000E+00  0.00000000E+00
  0.00000000E+00  0.00000000E+00  0.00000000E+00
  0.00000000E+00  0.00000000E+00  0.00000000E+00
  0.00000000E+00  0.00000000E+00  0.00000000E+00
  0.00000000E+00  0.00000000E+00  0.00000000E+00
  0.00000000E+00  0.00000000E+00  0.00000000E+00
  0.00000000E+00  0.00000000E+00  0.00000000E+00
  0.00000000E+00  0.00000000E+00  0.00000000E+00
  0.00000000E+00  0.00000000E+00  0.00000000E+00
  0.00000000E+00  0.00000000E+00  0.00000000E+00
  0.00000000E+00  0.00000000E+00  0.00000000E+00
  0.00000000E+00  0.00000000E+00  0.00000000E+00
  0.00000000E+00  0.00000000E+00  0.00000000E+00
  0.00000000E+00  0.00000000E+00  0.00000000E+00
  0.00000000E+00  0.00000000E+00  0.00000000E+00
  0.00000000E+00  0.00000000E+00  0.00000000E+00
  0.00000000E+00  0.00000000E+00  0.00000000E+00
  0.00000000E+00  0.00000000E+00  0.00000000E+00
  0.00000000E+00  0.00000000E+00  0.00000000E+00
  0.00000000E+00  0.00000000E+00  0.00000000E+00
  0.00000000E+00  0.00000000E+00  0.00000000E+00
  0.00000000E+00  0.00000000E+00  0.00000000E+00
  0.00000000E+00  0.00000000E+00  0.00000000E+00
  0.00000000E+00  0.00000000E+00  0.00000000E+00
  0.00000000E+00  0.00000000E+00  0.00000000E+00
  0.00000000E+00  0.00000000E+00  0.00000000E+00
  0.00000000E+00  0.00000000E+00  0.00000000E+00
  0.00000000E+00  0.00000000E+00  0.00000000E+00
  0.00000000E+00  0.00000000E+00  0.00000000E+00
  0.00000000E+00  0.00000000E+00  0.00000000E+00
  0.00000000E+00  0.00000000E+00  0.00000000E+00
  0.00000000E+00  0.00000000E+00  0.00000000E+00
  0.00000000E+00  0.00000000E+00  0.00000000E+00
  0.00000000E+00  0.00000000E+00  0.00000000E+00
  0.00000000E+00  0.00000000E+00  0.00000000E+00
  0.00000000E+00  0.00000000E+00  0.00000000E+00
  0.00000000E+00  0.00000000E+00  0.00000000E+00
  0.00000000E+00  0.00000000E+00  0.00000000E+00
  0.00000000E+00  0.00000000E+00  0.00000000E+00
  0.00000000E+00  0.00000000E+00  0.00000000E+00
  0.00000000E+00  0.00000000E+00  0.00000000E+00
  0.00000000E+00  0.00000000E+00  0.00000000E+00
  0.00000000E+00  0.00000000E+00  0.00000000E+00
  0.00000000E+00  0.00000000E+00  0.00000000E+00
  0.00000000E+00  0.00000000E+00  0.00000000E+00
