ortho_FA0000MA0875Cs0125                
   1.00000000000000     
    11.3034773901191059    0.0945304178627897   -0.0747917223123817
     0.0922615970588800    9.6233378965741672    0.0599695295450265
    -0.1256742508912512    0.1136468273202338   18.2219458843678233
   Pb   I    Cs   C    N    H 
     8    24     1     7     7    42
Direct
  0.1542361953778915  0.1117017931661208  0.4375473113888607
  0.1487323982951272  0.6163304550533455  0.4366250751963142
  0.8387316554306616  0.3654551413185173  0.5572268437479021
  0.8407114247740443  0.8671710134995023  0.5550683621203089
  0.3594590168965036  0.3855087886820106  0.9472834630500360
  0.3592012697883109  0.8868029032431213  0.9353951909628174
  0.6751362828034447  0.1264432723965468  0.0646538969709216
  0.6800826240300591  0.6278274730555753  0.0668828337511754
  0.1973904420438810  0.1280837404367955  0.0060668037334149
  0.1959212262801691  0.6502257984824257  0.9949738225701119
  0.8428108286857006  0.3776289679964573 -0.0002401649765757
  0.8409761209260819  0.8826257927154660  0.9966466131220671
  0.3297844750325639  0.3745601672078107  0.4994689853237077
  0.3294380691121011  0.8531542856725477  0.4978841951266356
  0.6547035203884515  0.1240401204219811  0.5076032444467031
  0.6736411015163444  0.6217461442302705  0.4976497153880848
  0.2786709569571075  0.1111106065845861  0.2810882414321739
  0.2810794733652657  0.6086883018399839  0.2873355460855069
  0.7295252535107070  0.3631132355738699  0.7101623803116996
  0.7385688776925432  0.8702916499067194  0.7114516359745632
  0.2401875126595782  0.3786067045944278  0.7938215986816644
  0.2345948607707325  0.8794049492980297  0.7821021081718411
  0.8241696685976007  0.1075292451489046  0.2084638357466718
  0.8284120940934958  0.6270756618598387  0.2105559108787056
  0.0332284164142398  0.1131947734136309  0.6002720846436652
  0.0244027997041982  0.6140578173184494  0.6025183527885929
  0.9763720855022261  0.3635951599880664  0.3891891042338649
  0.9763272961536694  0.8781425440723066  0.3877285309322226
  0.4998486097295148  0.3842826803393231  0.1204889969876360
  0.4946493237063594  0.8783902017412668  0.1122977928534685
  0.5477520389931628  0.1436950690405493  0.8989283182727449
  0.5434959125986064  0.6264510695553503  0.8988869006499991
  0.0862032467200606  0.8665451241542997  0.1570218815827149
  0.4675993338195372  0.6564269819647621  0.6796706949861926
  0.6341841000290980  0.3753232047570710  0.3239527413021226
  0.9703925616950982  0.6506254372420569  0.8328257278905892
  0.4573862873136981  0.1292723411396817  0.7061478153351579
  0.1139008560992515  0.4261422735680090  0.1393827391563563
  0.9807395794413176  0.1654826023347650  0.8296704117611258
  0.6258210041775220  0.8927261591596151  0.3266297399585512
  0.3479014758781438  0.6038014219604358  0.6619322762434517
  0.5059306382189253  0.3478142028636683  0.3333247605972481
  0.8451454662886352  0.6058980122069098  0.8310943488484662
  0.3923582446936155  0.1049672014204817  0.6359453669086548
  0.0497364368680074  0.3410873003956144  0.1939824629152554
  0.8580300476703233  0.1131346343880416  0.8350321984277889
  0.4994747856771145  0.8523774511902531  0.3303424160891477
  0.2879114216652657  0.6843245184989436  0.6518181211851979
  0.3141439379059626  0.5448405408740445  0.7060176698533875
  0.3481658363541031  0.5405788631794191  0.6159883461627732
  0.4582955649587097  0.7350520796988579  0.7222021043668500
  0.5237386489422876  0.5700603106209113  0.7001218849699172
  0.5061739096502101  0.7006247409032071  0.6298852793053521
  0.4578618916936968  0.3698670259116945  0.2854652378402424
  0.4678634223585380  0.4057578773894241  0.3749079559853897
  0.4899676461552996  0.2452888428809075  0.3465986069599443
  0.6444057987191826  0.4811220656080478  0.3024942029982817
  0.6791471726788887  0.3632895845536135  0.3772596327627844
  0.6707224832072723  0.3011421363828294  0.2846331495094312
  0.7898152667080752  0.6861344856419797  0.8112954048513319
  0.8163487920697393  0.5739752865038390  0.8823517221330398
  0.8310742039344492  0.5235947261031539  0.7950756190858199
  0.9761387975092628  0.7454282155381996  0.8652218991125540
  0.0259062197831183  0.5688024075263987  0.8584589018896367
 -0.0009631183872770  0.6705374687179744  0.7765718817053929
  0.3171671845597129  0.1673219529948879  0.6308268990302394
  0.3646781611962845  0.0033355024005521  0.6320681165655014
  0.4457444397559112  0.1247323618788966  0.5910077789538213
  0.4011809456348156  0.0957008810941515  0.7511495512526152
  0.5402563893697877  0.0685170019012717  0.7057135062516436
  0.4757331835480014  0.2400433704058904  0.7101551744697598
  0.9603120162277583  0.3312015793602999  0.1807612298710603
  0.0533499097644481  0.3824882994769305  0.2463012660290761
  0.0856082321729018  0.2417322157151455  0.1985659631444942
  0.0821744819557836  0.5334969249443696  0.1440209275959669
  0.2090349510465782  0.4182588175038980  0.1512581669058999
  0.0932569491732282  0.3876614100648474  0.0845086819987947
  0.7967645423479496  0.1886230288553150  0.8172089348512677
  0.8377093269862250  0.0821151514161367  0.8881414009346320
  0.8435417292404903  0.0282658336311627  0.8009552524985710
  0.9846977319077987  0.2664491860780241  0.8564271947242257
  0.0420873913447425  0.0923011593457427  0.8575515901403978
  0.0036162032561997  0.1755499722885562  0.7716826535388576
  0.4435706046077385  0.9213954458432415  0.3010179242446297
  0.4679777416843666  0.8508780576585117  0.3839651181034769
  0.4829143353654604  0.7550384570616305  0.3090901781362920
  0.6325881280296876  0.0026984278165497  0.3404720061166778
  0.6774067914399045  0.8298228346175707  0.3665295497531459
  0.6582705274383110  0.8753930847599614  0.2710945617757143
 
  0.00000000E+00  0.00000000E+00  0.00000000E+00
  0.00000000E+00  0.00000000E+00  0.00000000E+00
  0.00000000E+00  0.00000000E+00  0.00000000E+00
  0.00000000E+00  0.00000000E+00  0.00000000E+00
  0.00000000E+00  0.00000000E+00  0.00000000E+00
  0.00000000E+00  0.00000000E+00  0.00000000E+00
  0.00000000E+00  0.00000000E+00  0.00000000E+00
  0.00000000E+00  0.00000000E+00  0.00000000E+00
  0.00000000E+00  0.00000000E+00  0.00000000E+00
  0.00000000E+00  0.00000000E+00  0.00000000E+00
  0.00000000E+00  0.00000000E+00  0.00000000E+00
  0.00000000E+00  0.00000000E+00  0.00000000E+00
  0.00000000E+00  0.00000000E+00  0.00000000E+00
  0.00000000E+00  0.00000000E+00  0.00000000E+00
  0.00000000E+00  0.00000000E+00  0.00000000E+00
  0.00000000E+00  0.00000000E+00  0.00000000E+00
  0.00000000E+00  0.00000000E+00  0.00000000E+00
  0.00000000E+00  0.00000000E+00  0.00000000E+00
  0.00000000E+00  0.00000000E+00  0.00000000E+00
  0.00000000E+00  0.00000000E+00  0.00000000E+00
  0.00000000E+00  0.00000000E+00  0.00000000E+00
  0.00000000E+00  0.00000000E+00  0.00000000E+00
  0.00000000E+00  0.00000000E+00  0.00000000E+00
  0.00000000E+00  0.00000000E+00  0.00000000E+00
  0.00000000E+00  0.00000000E+00  0.00000000E+00
  0.00000000E+00  0.00000000E+00  0.00000000E+00
  0.00000000E+00  0.00000000E+00  0.00000000E+00
  0.00000000E+00  0.00000000E+00  0.00000000E+00
  0.00000000E+00  0.00000000E+00  0.00000000E+00
  0.00000000E+00  0.00000000E+00  0.00000000E+00
  0.00000000E+00  0.00000000E+00  0.00000000E+00
  0.00000000E+00  0.00000000E+00  0.00000000E+00
  0.00000000E+00  0.00000000E+00  0.00000000E+00
  0.00000000E+00  0.00000000E+00  0.00000000E+00
  0.00000000E+00  0.00000000E+00  0.00000000E+00
  0.00000000E+00  0.00000000E+00  0.00000000E+00
  0.00000000E+00  0.00000000E+00  0.00000000E+00
  0.00000000E+00  0.00000000E+00  0.00000000E+00
  0.00000000E+00  0.00000000E+00  0.00000000E+00
  0.00000000E+00  0.00000000E+00  0.00000000E+00
  0.00000000E+00  0.00000000E+00  0.00000000E+00
  0.00000000E+00  0.00000000E+00  0.00000000E+00
  0.00000000E+00  0.00000000E+00  0.00000000E+00
  0.00000000E+00  0.00000000E+00  0.00000000E+00
  0.00000000E+00  0.00000000E+00  0.00000000E+00
  0.00000000E+00  0.00000000E+00  0.00000000E+00
  0.00000000E+00  0.00000000E+00  0.00000000E+00
  0.00000000E+00  0.00000000E+00  0.00000000E+00
  0.00000000E+00  0.00000000E+00  0.00000000E+00
  0.00000000E+00  0.00000000E+00  0.00000000E+00
  0.00000000E+00  0.00000000E+00  0.00000000E+00
  0.00000000E+00  0.00000000E+00  0.00000000E+00
  0.00000000E+00  0.00000000E+00  0.00000000E+00
  0.00000000E+00  0.00000000E+00  0.00000000E+00
  0.00000000E+00  0.00000000E+00  0.00000000E+00
  0.00000000E+00  0.00000000E+00  0.00000000E+00
  0.00000000E+00  0.00000000E+00  0.00000000E+00
  0.00000000E+00  0.00000000E+00  0.00000000E+00
  0.00000000E+00  0.00000000E+00  0.00000000E+00
  0.00000000E+00  0.00000000E+00  0.00000000E+00
  0.00000000E+00  0.00000000E+00  0.00000000E+00
  0.00000000E+00  0.00000000E+00  0.00000000E+00
  0.00000000E+00  0.00000000E+00  0.00000000E+00
  0.00000000E+00  0.00000000E+00  0.00000000E+00
  0.00000000E+00  0.00000000E+00  0.00000000E+00
  0.00000000E+00  0.00000000E+00  0.00000000E+00
  0.00000000E+00  0.00000000E+00  0.00000000E+00
  0.00000000E+00  0.00000000E+00  0.00000000E+00
  0.00000000E+00  0.00000000E+00  0.00000000E+00
  0.00000000E+00  0.00000000E+00  0.00000000E+00
  0.00000000E+00  0.00000000E+00  0.00000000E+00
  0.00000000E+00  0.00000000E+00  0.00000000E+00
  0.00000000E+00  0.00000000E+00  0.00000000E+00
  0.00000000E+00  0.00000000E+00  0.00000000E+00
  0.00000000E+00  0.00000000E+00  0.00000000E+00
  0.00000000E+00  0.00000000E+00  0.00000000E+00
  0.00000000E+00  0.00000000E+00  0.00000000E+00
  0.00000000E+00  0.00000000E+00  0.00000000E+00
  0.00000000E+00  0.00000000E+00  0.00000000E+00
  0.00000000E+00  0.00000000E+00  0.00000000E+00
  0.00000000E+00  0.00000000E+00  0.00000000E+00
  0.00000000E+00  0.00000000E+00  0.00000000E+00
  0.00000000E+00  0.00000000E+00  0.00000000E+00
  0.00000000E+00  0.00000000E+00  0.00000000E+00
  0.00000000E+00  0.00000000E+00  0.00000000E+00
  0.00000000E+00  0.00000000E+00  0.00000000E+00
  0.00000000E+00  0.00000000E+00  0.00000000E+00
  0.00000000E+00  0.00000000E+00  0.00000000E+00
  0.00000000E+00  0.00000000E+00  0.00000000E+00
