hexa_FA0375MA0250Cs0375                 
   1.00000000000000     
    18.4374817929491321   -0.0029875376667485   -0.1055423773931797
    -9.2240920867491862   14.6921121866402533   -0.0543050829328405
    -0.0440211284143893   -0.0567497012688645    7.7841298358154507
   Pb   I    N    C    H    Cs
     8    24     8     5    27     3
Direct
  0.5046482078779044  0.5044526547041923  0.9223196089568240
  0.4978897882345720  0.9989059112319565  0.9272096723766843
  0.9996449928176387  0.4961423998447644  0.9266608301555992
  0.0072483432853133  0.9951181169445732  0.9377062305112641
  0.0080000707490430  0.9943067683917928  0.4416493351392969
  0.9994762131327576  0.4948626627636277  0.4311262964112994
  0.4970354082144531 -0.0001456884311025  0.4356540100901412
  0.5034268412465177  0.5033793779897364  0.4327686256475221
  0.4134087859212513  0.0814119943441570  0.1743248333831324
  0.4170212517242210  0.5830752688201325  0.1748145448406550
  0.9237683685026667  0.0766639293423000  0.1909137336915835
  0.9285506493809469  0.5883536978135676  0.1797396310259576
  0.4131372132736303  0.3259657263424120  0.1622253109233620
  0.3988612304526369  0.8237435845050447  0.1758344090273035
  0.9084078554809107  0.3177658967526395  0.1686923910071254
  0.9235846523475270  0.8193991113762954  0.1826649888795909
  0.1756059136701077  0.0768134001476242  0.1938591251416542
  0.1683201449289470  0.5778355223385675  0.1783041255429245
  0.6655675712418413  0.0788767303083372  0.1873854178963906
  0.6726518574907124  0.5839946153901567  0.1845757150421083
  0.0627206995823458  0.3913845808576770  0.6803778030660835
  0.0826108340994287  0.9010812942487789  0.6932778021516246
  0.5845897528955216  0.4193552901284509  0.6775704060908224
  0.5805221430546946  0.9168390908474733  0.6785332782442967
  0.1055181659170360  0.1710587447954045  0.6908539326438858
  0.1068882547030789  0.6707998335181596  0.6768666569379858
  0.5951610010708442  0.1757134019052871  0.6862752261426462
  0.5998215479863896  0.6790638846380569  0.6757550290195339
  0.3400332036550838  0.4213473145616033  0.6745287513156296
  0.3327683674096162  0.9179994533372741  0.6766476952706011
  0.8377872406053045  0.4242584577806342  0.6707839410955093
  0.8447118461688777  0.9151808839683695  0.6831290084827617
  0.2223704412943894  0.3164056137332537  0.1902043776504048
  0.7213882619216440  0.3181452564854289  0.1862563011362903
  0.7219561500637942  0.8185161572780406  0.1865988987699099
  0.0974262826270632  0.3187152735435017  0.1886997238463194
  0.5953765024222903  0.3180058378235308  0.1868849171795204
  0.5952872322463201  0.8181481979306162  0.1867492674240380
  0.2786020664190496  0.1321960213266701  0.7539859615909629
  0.2705119236291911  0.6148559078411242  0.7360959024136196
  0.1811035209082332  0.3588389621197379  0.1883898189159904
  0.6789950017440618  0.3595043730984447  0.1868198043656192
  0.6789302968539119  0.8592997021608050  0.1868565172044957
  0.3561595178297112  0.1664199724328108  0.6466010187706054
  0.3601116618543757  0.6697369761433074  0.6727126730475653
  0.2191748377337683  0.4332970478116746  0.1865420549302799
  0.7160283910502179  0.4339914095731417  0.1872852208170717
  0.7159371211011194  0.9338458312520518  0.1871527523638102
  0.1928488469593530  0.2468452115912787  0.1920853123295387
  0.6923822360232375  0.2485410610281718  0.1857527609277797
  0.6937222799057111  0.7489443095259976  0.1867115422408070
  0.2880280508517605  0.3524687665968019  0.1881348294088698
  0.7868390540865193  0.3549799256267746  0.1857276019134465
  0.7873505440337468  0.8563310236551483  0.1868559838741748
  0.0701219345646016  0.3567862185435850  0.1861911594884328
  0.5664396700421133  0.3546322088124683  0.1856528120614840
  0.5671299408261884  0.8555115412152967  0.1869156187723602
  0.0560431668166450  0.2492267174717460  0.1900005420698019
  0.5546646612776561  0.2483104440058163  0.1852893732750943
  0.5540056335676335  0.7483706972909316  0.1861115660786370
  0.2392940625163461  0.1553402214575410  0.7130112607307184
  0.2944761773604500  0.1522018252086416  0.8814967601117771
  0.2397447544087213  0.0613260009177564  0.7503127803585108
  0.3888512838662505  0.2405840351272251  0.6367692260678289
  0.3990250256143070  0.1484155809636697  0.7071603905471473
  0.3363163118572716  0.1344957557902901  0.5186678453769047
  0.2314283882056787  0.6362995392923589  0.6853301681674906
  0.2679462637727954  0.6197681903016924  0.8686033667274791
  0.2410295737062804  0.5461849501033355  0.7057346455636642
  0.3853374739838202  0.7421575755837043  0.6962167988546000
  0.3995667040041140  0.6495705682298085  0.7412240976721146
  0.3598498049369898  0.6566585831278029  0.5346950586165654
  0.8035084125647434  0.1592008471817557  0.6846322721325498
  0.1794870086356816  0.8295925501565466  0.1995880877075352
  0.8083508703869627  0.6594189370749215  0.6856332744699233
 
  0.00000000E+00  0.00000000E+00  0.00000000E+00
  0.00000000E+00  0.00000000E+00  0.00000000E+00
  0.00000000E+00  0.00000000E+00  0.00000000E+00
  0.00000000E+00  0.00000000E+00  0.00000000E+00
  0.00000000E+00  0.00000000E+00  0.00000000E+00
  0.00000000E+00  0.00000000E+00  0.00000000E+00
  0.00000000E+00  0.00000000E+00  0.00000000E+00
  0.00000000E+00  0.00000000E+00  0.00000000E+00
  0.00000000E+00  0.00000000E+00  0.00000000E+00
  0.00000000E+00  0.00000000E+00  0.00000000E+00
  0.00000000E+00  0.00000000E+00  0.00000000E+00
  0.00000000E+00  0.00000000E+00  0.00000000E+00
  0.00000000E+00  0.00000000E+00  0.00000000E+00
  0.00000000E+00  0.00000000E+00  0.00000000E+00
  0.00000000E+00  0.00000000E+00  0.00000000E+00
  0.00000000E+00  0.00000000E+00  0.00000000E+00
  0.00000000E+00  0.00000000E+00  0.00000000E+00
  0.00000000E+00  0.00000000E+00  0.00000000E+00
  0.00000000E+00  0.00000000E+00  0.00000000E+00
  0.00000000E+00  0.00000000E+00  0.00000000E+00
  0.00000000E+00  0.00000000E+00  0.00000000E+00
  0.00000000E+00  0.00000000E+00  0.00000000E+00
  0.00000000E+00  0.00000000E+00  0.00000000E+00
  0.00000000E+00  0.00000000E+00  0.00000000E+00
  0.00000000E+00  0.00000000E+00  0.00000000E+00
  0.00000000E+00  0.00000000E+00  0.00000000E+00
  0.00000000E+00  0.00000000E+00  0.00000000E+00
  0.00000000E+00  0.00000000E+00  0.00000000E+00
  0.00000000E+00  0.00000000E+00  0.00000000E+00
  0.00000000E+00  0.00000000E+00  0.00000000E+00
  0.00000000E+00  0.00000000E+00  0.00000000E+00
  0.00000000E+00  0.00000000E+00  0.00000000E+00
  0.00000000E+00  0.00000000E+00  0.00000000E+00
  0.00000000E+00  0.00000000E+00  0.00000000E+00
  0.00000000E+00  0.00000000E+00  0.00000000E+00
  0.00000000E+00  0.00000000E+00  0.00000000E+00
  0.00000000E+00  0.00000000E+00  0.00000000E+00
  0.00000000E+00  0.00000000E+00  0.00000000E+00
  0.00000000E+00  0.00000000E+00  0.00000000E+00
  0.00000000E+00  0.00000000E+00  0.00000000E+00
  0.00000000E+00  0.00000000E+00  0.00000000E+00
  0.00000000E+00  0.00000000E+00  0.00000000E+00
  0.00000000E+00  0.00000000E+00  0.00000000E+00
  0.00000000E+00  0.00000000E+00  0.00000000E+00
  0.00000000E+00  0.00000000E+00  0.00000000E+00
  0.00000000E+00  0.00000000E+00  0.00000000E+00
  0.00000000E+00  0.00000000E+00  0.00000000E+00
  0.00000000E+00  0.00000000E+00  0.00000000E+00
  0.00000000E+00  0.00000000E+00  0.00000000E+00
  0.00000000E+00  0.00000000E+00  0.00000000E+00
  0.00000000E+00  0.00000000E+00  0.00000000E+00
  0.00000000E+00  0.00000000E+00  0.00000000E+00
  0.00000000E+00  0.00000000E+00  0.00000000E+00
  0.00000000E+00  0.00000000E+00  0.00000000E+00
  0.00000000E+00  0.00000000E+00  0.00000000E+00
  0.00000000E+00  0.00000000E+00  0.00000000E+00
  0.00000000E+00  0.00000000E+00  0.00000000E+00
  0.00000000E+00  0.00000000E+00  0.00000000E+00
  0.00000000E+00  0.00000000E+00  0.00000000E+00
  0.00000000E+00  0.00000000E+00  0.00000000E+00
  0.00000000E+00  0.00000000E+00  0.00000000E+00
  0.00000000E+00  0.00000000E+00  0.00000000E+00
  0.00000000E+00  0.00000000E+00  0.00000000E+00
  0.00000000E+00  0.00000000E+00  0.00000000E+00
  0.00000000E+00  0.00000000E+00  0.00000000E+00
  0.00000000E+00  0.00000000E+00  0.00000000E+00
  0.00000000E+00  0.00000000E+00  0.00000000E+00
  0.00000000E+00  0.00000000E+00  0.00000000E+00
  0.00000000E+00  0.00000000E+00  0.00000000E+00
  0.00000000E+00  0.00000000E+00  0.00000000E+00
  0.00000000E+00  0.00000000E+00  0.00000000E+00
  0.00000000E+00  0.00000000E+00  0.00000000E+00
  0.00000000E+00  0.00000000E+00  0.00000000E+00
  0.00000000E+00  0.00000000E+00  0.00000000E+00
  0.00000000E+00  0.00000000E+00  0.00000000E+00
