ortho_FA0125MA0625Cs0250                
   1.00000000000000     
    10.9154281948645071    0.0866067538015222    0.1009441157575975
     0.0781739961732477    9.6101416305213867   -0.0579622178587783
     0.1638392115986745   -0.0979651064527093   19.0233281156935128
   Pb   I    Cs   C    N    H 
     8    24     2     6     7    35
Direct
  0.1613006211858613  0.1203942088853046  0.4318162904396251
  0.1659604149951558  0.6281419215467495  0.4325776933579369
  0.8428175259016527  0.3757303826387025  0.5567334668336594
  0.8578183444025519  0.8714043342685468  0.5546392403252606
  0.3378102941671560  0.3865748904369247  0.9463759213041610
  0.3355776737498364  0.8796399084179358  0.9412679391775496
  0.6503469503228908  0.1305031515813450  0.0645222884991755
  0.6634540027176064  0.6350354720809073  0.0573401929788887
  0.1741706892214445  0.1372256264940716  0.0153527650063591
  0.1694498648390440  0.6397093821730624  0.0048724239980816
  0.8357594146505553  0.3698471735446556  0.0164599676993269
  0.8384697516109333  0.8892666775468571  0.0153340992118997
  0.3444734156538471  0.3757725479392590  0.4757851811285069
  0.3249731406312616  0.8671221417422637  0.4993557468236714
  0.6738716260822794  0.1182776931772686  0.5083331294130249
  0.6657154691086951  0.6366581826494602  0.5207954799320176
  0.2754106759703048  0.1091830492704303  0.2811471966789144
  0.3064309044815292  0.6353511271800896  0.2872267655718218
  0.7116154240823478  0.3715902301852920  0.7079232125929837
  0.7520880591500060  0.8610596511855109  0.7106383854283552
  0.2054040846807937  0.3838316523193624  0.7965086465054790
  0.2064721857279435  0.8778741070121274  0.7954797824231474
  0.7498859905117164  0.1304629947269108  0.2200924980643037
  0.7945119394809633  0.6366610944060195  0.2018414742936377
  0.0427964261821630  0.1348556021499975  0.5995885419826962
  0.0463835234879378  0.6117551627041165  0.5978277379095346
  0.9707403128843369  0.3722095095301217  0.3927387580910603
  0.9698176362682412  0.8765988939513869  0.3892966298568799
  0.4646936566825338  0.3967832015800066  0.1044942407520430
  0.4599388677847432  0.8772274079023835  0.1025185031245960
  0.5336961875417936  0.1305467184191540  0.9023556339983095
  0.5292962499036532  0.6294159034672061  0.8939794482547512
  0.4137987689495187  0.6295322171264387  0.6784444668519444
  0.0803124454327558  0.8597805929570059  0.1705943397002985
  0.3943140774674870  0.1299335524273965  0.6849997586783650
  0.6191403147147800  0.4244438840861945  0.3447235065658523
  0.5967855477825360  0.8645048177174935  0.3548820411185002
  0.9342887549539056  0.1229564767877969  0.8601496678366582
  0.9381475803475435  0.6205749361587286  0.8614991886074794
  0.1088994187244977  0.4234462758138066  0.1814507661581699
  0.4806323941747692  0.0596043923404049  0.7169737229504450
  0.3992728338165389  0.1654688793985629  0.6186632202740682
  0.5201079891214130  0.3431044144535270  0.3119512242146849
  0.5629784033412258  0.8545868716490375  0.2798304768971214
  0.9258271357734345  0.1331219109015759  0.7824612098991969
  0.9287841834042025  0.5946536042305608  0.7847043997055567
  0.0228964369591745  0.3091334347666473  0.1658126515948341
  0.3133639267246170  0.1623159542189428  0.7162294981932106
  0.4732393070020305  0.0457598866663363  0.7700573361031354
  0.5623729272898916  0.0293386895009079  0.6934293132376477
  0.4736024741496113  0.1420565349978563  0.5862028528234337
  0.3273509553929390  0.2170064552883053  0.5966576507290059
  0.4601479481273822  0.4075053489907451  0.2847549746983298
  0.4664232541552113  0.2944713283868743  0.3496686952915232
  0.5576079458020486  0.2683266470536305  0.2774136947264027
  0.5775621200332419  0.5002569202849466  0.3816896207546667
  0.6797431812929590  0.3529853342000316  0.3727361506335498
  0.6711229847668212  0.4764764156089603  0.3030338573547395
  0.5624395072671549  0.9511545954979395  0.2562258836838098
  0.4770447126685280  0.8095561363189774  0.2744677805181734
  0.6272808112062237  0.7929925730961987  0.2514523963716560
  0.5240990294678711  0.9205195233970795  0.3844216556451589
  0.6066480695501828  0.7593901827206793  0.3758874277183201
  0.6839027126640177  0.9187654268223515  0.3587782942129185
  0.8720440142329459  0.2180528090325177  0.7668192097750787
  0.8836367732481418  0.0456055980226250  0.7608594954018583
  0.0113991481953208  0.1412117280821598  0.7587459143829545
  0.8417213959483050  0.1252176987901196  0.8832777718739320
  0.9815719236986484  0.0252402364405855  0.8726064706500520
  0.9873118420331578  0.2103346644155618  0.8799257533476839
  0.9070357104350635  0.6856642275663916  0.7580282242638733
  0.8594658228316547  0.5250156770909868  0.7719179929310859
  0.0110511002788531  0.5533575152185002  0.7647221841617294
  0.8536013750467646  0.6711866163909489  0.8812747941597932
  0.9530027199006941  0.5212988355805422  0.8879385910365740
  0.0167656231457600  0.6875988144578108  0.8702330195307778
  0.9445413600401613  0.3454153079385922  0.1406920325626627
  0.9942513035766036  0.2586820250837661  0.2108092550036056
  0.0645509248752115  0.2373877700124556  0.1309820592267872
  0.0644479495291411  0.4949294133735667  0.2194759677349386
  0.1923217500732684  0.3784429769707749  0.2035064401150208
  0.1305466470260099  0.4766955675926122  0.1321527441583859
 
  0.00000000E+00  0.00000000E+00  0.00000000E+00
  0.00000000E+00  0.00000000E+00  0.00000000E+00
  0.00000000E+00  0.00000000E+00  0.00000000E+00
  0.00000000E+00  0.00000000E+00  0.00000000E+00
  0.00000000E+00  0.00000000E+00  0.00000000E+00
  0.00000000E+00  0.00000000E+00  0.00000000E+00
  0.00000000E+00  0.00000000E+00  0.00000000E+00
  0.00000000E+00  0.00000000E+00  0.00000000E+00
  0.00000000E+00  0.00000000E+00  0.00000000E+00
  0.00000000E+00  0.00000000E+00  0.00000000E+00
  0.00000000E+00  0.00000000E+00  0.00000000E+00
  0.00000000E+00  0.00000000E+00  0.00000000E+00
  0.00000000E+00  0.00000000E+00  0.00000000E+00
  0.00000000E+00  0.00000000E+00  0.00000000E+00
  0.00000000E+00  0.00000000E+00  0.00000000E+00
  0.00000000E+00  0.00000000E+00  0.00000000E+00
  0.00000000E+00  0.00000000E+00  0.00000000E+00
  0.00000000E+00  0.00000000E+00  0.00000000E+00
  0.00000000E+00  0.00000000E+00  0.00000000E+00
  0.00000000E+00  0.00000000E+00  0.00000000E+00
  0.00000000E+00  0.00000000E+00  0.00000000E+00
  0.00000000E+00  0.00000000E+00  0.00000000E+00
  0.00000000E+00  0.00000000E+00  0.00000000E+00
  0.00000000E+00  0.00000000E+00  0.00000000E+00
  0.00000000E+00  0.00000000E+00  0.00000000E+00
  0.00000000E+00  0.00000000E+00  0.00000000E+00
  0.00000000E+00  0.00000000E+00  0.00000000E+00
  0.00000000E+00  0.00000000E+00  0.00000000E+00
  0.00000000E+00  0.00000000E+00  0.00000000E+00
  0.00000000E+00  0.00000000E+00  0.00000000E+00
  0.00000000E+00  0.00000000E+00  0.00000000E+00
  0.00000000E+00  0.00000000E+00  0.00000000E+00
  0.00000000E+00  0.00000000E+00  0.00000000E+00
  0.00000000E+00  0.00000000E+00  0.00000000E+00
  0.00000000E+00  0.00000000E+00  0.00000000E+00
  0.00000000E+00  0.00000000E+00  0.00000000E+00
  0.00000000E+00  0.00000000E+00  0.00000000E+00
  0.00000000E+00  0.00000000E+00  0.00000000E+00
  0.00000000E+00  0.00000000E+00  0.00000000E+00
  0.00000000E+00  0.00000000E+00  0.00000000E+00
  0.00000000E+00  0.00000000E+00  0.00000000E+00
  0.00000000E+00  0.00000000E+00  0.00000000E+00
  0.00000000E+00  0.00000000E+00  0.00000000E+00
  0.00000000E+00  0.00000000E+00  0.00000000E+00
  0.00000000E+00  0.00000000E+00  0.00000000E+00
  0.00000000E+00  0.00000000E+00  0.00000000E+00
  0.00000000E+00  0.00000000E+00  0.00000000E+00
  0.00000000E+00  0.00000000E+00  0.00000000E+00
  0.00000000E+00  0.00000000E+00  0.00000000E+00
  0.00000000E+00  0.00000000E+00  0.00000000E+00
  0.00000000E+00  0.00000000E+00  0.00000000E+00
  0.00000000E+00  0.00000000E+00  0.00000000E+00
  0.00000000E+00  0.00000000E+00  0.00000000E+00
  0.00000000E+00  0.00000000E+00  0.00000000E+00
  0.00000000E+00  0.00000000E+00  0.00000000E+00
  0.00000000E+00  0.00000000E+00  0.00000000E+00
  0.00000000E+00  0.00000000E+00  0.00000000E+00
  0.00000000E+00  0.00000000E+00  0.00000000E+00
  0.00000000E+00  0.00000000E+00  0.00000000E+00
  0.00000000E+00  0.00000000E+00  0.00000000E+00
  0.00000000E+00  0.00000000E+00  0.00000000E+00
  0.00000000E+00  0.00000000E+00  0.00000000E+00
  0.00000000E+00  0.00000000E+00  0.00000000E+00
  0.00000000E+00  0.00000000E+00  0.00000000E+00
  0.00000000E+00  0.00000000E+00  0.00000000E+00
  0.00000000E+00  0.00000000E+00  0.00000000E+00
  0.00000000E+00  0.00000000E+00  0.00000000E+00
  0.00000000E+00  0.00000000E+00  0.00000000E+00
  0.00000000E+00  0.00000000E+00  0.00000000E+00
  0.00000000E+00  0.00000000E+00  0.00000000E+00
  0.00000000E+00  0.00000000E+00  0.00000000E+00
  0.00000000E+00  0.00000000E+00  0.00000000E+00
  0.00000000E+00  0.00000000E+00  0.00000000E+00
  0.00000000E+00  0.00000000E+00  0.00000000E+00
  0.00000000E+00  0.00000000E+00  0.00000000E+00
  0.00000000E+00  0.00000000E+00  0.00000000E+00
  0.00000000E+00  0.00000000E+00  0.00000000E+00
  0.00000000E+00  0.00000000E+00  0.00000000E+00
  0.00000000E+00  0.00000000E+00  0.00000000E+00
  0.00000000E+00  0.00000000E+00  0.00000000E+00
  0.00000000E+00  0.00000000E+00  0.00000000E+00
  0.00000000E+00  0.00000000E+00  0.00000000E+00
