cubic_FA0250MA0750Cs0000                
   1.00000000000000     
    12.7731685494300535    0.0621157317159094    0.1863686341416493
     0.0617984104386358   12.7134512882873096   -0.0512788431985054
     0.1847839935353103   -0.0500437407678030   12.6799989280850749
   Cs   I    Pb   C    N    H 
     0    24     8     8    10    46
Direct
  0.0113715950210466  0.0012709674488893  0.2475659165471788
  0.0394872327375587  0.0020594273170850  0.7457795713928366
  0.9900235502610342  0.5074848995803841  0.2482512104816372
 -0.0000812281666028  0.5041612865145050  0.7487665006115591
  0.5261333632185774  0.9738485410342032  0.2524557752172523
  0.5126657530872419  0.0101177354053456  0.7518894751809849
  0.5014882150047631  0.5115106161789601  0.2572327868388459
  0.5070539513846731  0.4850120062796763  0.7567325272510689
  0.9933401135726454  0.2602228790869120  0.9932954425411293
  0.0234478792903698  0.2566299052635407  0.4970834342678454
  0.0428695961087733  0.7580995872924643  0.9938649156512487
  0.0189409776927269  0.7552057361666884  0.4938335456325501
  0.5296623785068144  0.2534973393020613  0.0300986504876684
  0.4643877832198649  0.2488877721227773  0.5041341883663134
  0.5169427558042236  0.7523258684418457  0.9890827421319082
  0.5348979311437050  0.7487367689088200  0.5163894619955641
  0.2530911721772033  0.5243886408161186  0.5207943632991426
  0.2554310059298942  0.5082843902701054  0.0136899235182727
  0.2580878721793078  0.9922511331210236  0.4921919705243843
  0.2670829626202482  0.0301389055203140  0.0115828940694059
  0.7541237140664342  0.5131201090671451  0.5098871317241359
  0.7559067642896700  0.5336799034476266  0.9959163789842792
  0.7556193178175369  0.0462264328326374  0.4939812439684427
  0.7684060576261401  0.0008669092825541  0.0125584817115473
  0.5120007594027087  0.0011860400843843  0.9979792966339351
  0.5054067543617474  0.9940687402964702  0.5035871348627510
  0.5011703071637258  0.5025109704653588  0.0069611475040147
  0.4968583101857560  0.5007756081951412  0.5043448384324113
  0.0188938549611723  0.0087190099953685 -0.0005870642387762
  0.0094636108654591  0.0053195935977966  0.4919265123244942
  0.0036855821066995  0.5093003701189758  0.9960295481727518
  0.9984833465915314  0.5038323069992527  0.4990666453604151
  0.2446600688995988  0.2509963690264003  0.2689599689766418
  0.7488388494301067  0.2677278113248097  0.7622910619197304
  0.7854108966918244  0.7780994211459585  0.2626480150352573
  0.7845341583548936  0.2795550472396745  0.2530503662019787
  0.2858274078123933  0.7820563964174400  0.2446078498242247
  0.2721733021152761  0.2617739000601466  0.7887188830535350
  0.7763018090167844  0.7866156418124769  0.7542901714339725
  0.2893622124809553  0.7758290137514601  0.7621649769816921
  0.3392523672617656  0.2120338733034253  0.2530178602466952
  0.1863012585788508  0.2909295071768408  0.1953047977571873
  0.8343766340812445  0.2105027786451250  0.7693631499192433
  0.6800375538171471  0.2578812683150868  0.6882250987522647
  0.6946888517531259  0.7173894114306508  0.2238760698445823
  0.7164887883058084  0.1873353702609272  0.2335808217796243
  0.1912793811733689  0.7141321239765924  0.2417105197571523
  0.2254007350564451  0.2231543892138705  0.6894954258731458
  0.7157655843423391  0.6874276325908351  0.7453955951231926
  0.1912255186230989  0.7226200323031570  0.7310232354781545
  0.2110874238630952  0.2495183331601186  0.3492834042748906
  0.3798989154382860  0.1863635583764942  0.3165281516790103
  0.3780407549185064  0.2127334910493381  0.1807123574508858
  0.2121655356905639  0.2982807377236475  0.1188333829621783
  0.1155283751978137  0.3245984412413601  0.2150490784539590
  0.7338495867910647  0.3281730958531979  0.8227598871911862
  0.8835342594447034  0.2233120432632848  0.8308206887492717
  0.8541813210783507  0.1516453685121739  0.7170889681624050
  0.6885223017982203  0.2025688976325632  0.6289662721403283
  0.6153680596419532  0.3060623086720176  0.6896633047765696
  0.6458878870024470  0.7633909936224111  0.1785079056436609
  0.6484212732600471  0.6876342520426635  0.2849709578851675
  0.7186509318762240  0.6540721294575886  0.1761484123474905
  0.7553513602359389  0.8472347079589340  0.3061286008484240
  0.8308958144523316  0.7276152597075189  0.3141957807925689
  0.8334562606134857  0.8028246652384680  0.1945944052874404
  0.6451532549417185  0.2102795451200274  0.2030098365474462
  0.7025106644902773  0.1445818160746972  0.3020128166181578
  0.7494894284663980  0.1351900090527922  0.1774000331242671
  0.7452133226355212  0.3317600560968083  0.3111295603413037
  0.8590093125475725  0.2513098265559318  0.2833012854459351
  0.7977304488314817  0.3210450321004846  0.1786366757283710
  0.1391525022963333  0.7403758359365687  0.1856407317724847
  0.1509186359065315  0.7130103082625272  0.3142085131527357
  0.2103657124943057  0.6373648153897999  0.2203508795196005
  0.2614494996956349  0.8608003380207734  0.2714589588522676
  0.3412525130547049  0.7478777308912906  0.2993217558591660
  0.3211927073090197  0.7853624329023347  0.1650512423402505
  0.1708509871855391  0.2752197172753715  0.6596397057140969
  0.1861187954736865  0.1523428328329186  0.7009449218093946
  0.2825774423803902  0.2112483706803417  0.6303471078022926
  0.2096176276305327  0.2716267190502947  0.8489293608033108
  0.3293488177038935  0.2031051458135004  0.8139748013842354
  0.3107431068630314  0.3368079183185553  0.7730861524537588
  0.6368189538883238  0.7025284753698028  0.7365023314256999
  0.7229968397536014  0.6413295751777358  0.8124946382364755
  0.7398240739546595  0.6418074895776172  0.6799853284312182
  0.7467757819158409  0.8306288159693048  0.8237434844001782
  0.8590809009310144  0.7663677308649505  0.7629424603922375
  0.7655450085170991  0.8330182578846631  0.6829644140307034
  0.1497415751802345  0.7661181794697843  0.6768994730125776
  0.1414707804751559  0.7110531652409915  0.7961826742534514
  0.2066106329938509  0.6500336607024633  0.6947979162054867
  0.2689608204098636  0.8532649772471288  0.7954775514250619
  0.3276073777600884  0.7277076067891403  0.8213337599948968
  0.3406971400925150  0.7839733416280178  0.6921590418791264
 
  0.00000000E+00  0.00000000E+00  0.00000000E+00
  0.00000000E+00  0.00000000E+00  0.00000000E+00
  0.00000000E+00  0.00000000E+00  0.00000000E+00
  0.00000000E+00  0.00000000E+00  0.00000000E+00
  0.00000000E+00  0.00000000E+00  0.00000000E+00
  0.00000000E+00  0.00000000E+00  0.00000000E+00
  0.00000000E+00  0.00000000E+00  0.00000000E+00
  0.00000000E+00  0.00000000E+00  0.00000000E+00
  0.00000000E+00  0.00000000E+00  0.00000000E+00
  0.00000000E+00  0.00000000E+00  0.00000000E+00
  0.00000000E+00  0.00000000E+00  0.00000000E+00
  0.00000000E+00  0.00000000E+00  0.00000000E+00
  0.00000000E+00  0.00000000E+00  0.00000000E+00
  0.00000000E+00  0.00000000E+00  0.00000000E+00
  0.00000000E+00  0.00000000E+00  0.00000000E+00
  0.00000000E+00  0.00000000E+00  0.00000000E+00
  0.00000000E+00  0.00000000E+00  0.00000000E+00
  0.00000000E+00  0.00000000E+00  0.00000000E+00
  0.00000000E+00  0.00000000E+00  0.00000000E+00
  0.00000000E+00  0.00000000E+00  0.00000000E+00
  0.00000000E+00  0.00000000E+00  0.00000000E+00
  0.00000000E+00  0.00000000E+00  0.00000000E+00
  0.00000000E+00  0.00000000E+00  0.00000000E+00
  0.00000000E+00  0.00000000E+00  0.00000000E+00
  0.00000000E+00  0.00000000E+00  0.00000000E+00
  0.00000000E+00  0.00000000E+00  0.00000000E+00
  0.00000000E+00  0.00000000E+00  0.00000000E+00
  0.00000000E+00  0.00000000E+00  0.00000000E+00
  0.00000000E+00  0.00000000E+00  0.00000000E+00
  0.00000000E+00  0.00000000E+00  0.00000000E+00
  0.00000000E+00  0.00000000E+00  0.00000000E+00
  0.00000000E+00  0.00000000E+00  0.00000000E+00
  0.00000000E+00  0.00000000E+00  0.00000000E+00
  0.00000000E+00  0.00000000E+00  0.00000000E+00
  0.00000000E+00  0.00000000E+00  0.00000000E+00
  0.00000000E+00  0.00000000E+00  0.00000000E+00
  0.00000000E+00  0.00000000E+00  0.00000000E+00
  0.00000000E+00  0.00000000E+00  0.00000000E+00
  0.00000000E+00  0.00000000E+00  0.00000000E+00
  0.00000000E+00  0.00000000E+00  0.00000000E+00
  0.00000000E+00  0.00000000E+00  0.00000000E+00
  0.00000000E+00  0.00000000E+00  0.00000000E+00
  0.00000000E+00  0.00000000E+00  0.00000000E+00
  0.00000000E+00  0.00000000E+00  0.00000000E+00
  0.00000000E+00  0.00000000E+00  0.00000000E+00
  0.00000000E+00  0.00000000E+00  0.00000000E+00
  0.00000000E+00  0.00000000E+00  0.00000000E+00
  0.00000000E+00  0.00000000E+00  0.00000000E+00
  0.00000000E+00  0.00000000E+00  0.00000000E+00
  0.00000000E+00  0.00000000E+00  0.00000000E+00
  0.00000000E+00  0.00000000E+00  0.00000000E+00
  0.00000000E+00  0.00000000E+00  0.00000000E+00
  0.00000000E+00  0.00000000E+00  0.00000000E+00
  0.00000000E+00  0.00000000E+00  0.00000000E+00
  0.00000000E+00  0.00000000E+00  0.00000000E+00
  0.00000000E+00  0.00000000E+00  0.00000000E+00
  0.00000000E+00  0.00000000E+00  0.00000000E+00
  0.00000000E+00  0.00000000E+00  0.00000000E+00
  0.00000000E+00  0.00000000E+00  0.00000000E+00
  0.00000000E+00  0.00000000E+00  0.00000000E+00
  0.00000000E+00  0.00000000E+00  0.00000000E+00
  0.00000000E+00  0.00000000E+00  0.00000000E+00
  0.00000000E+00  0.00000000E+00  0.00000000E+00
  0.00000000E+00  0.00000000E+00  0.00000000E+00
  0.00000000E+00  0.00000000E+00  0.00000000E+00
  0.00000000E+00  0.00000000E+00  0.00000000E+00
  0.00000000E+00  0.00000000E+00  0.00000000E+00
  0.00000000E+00  0.00000000E+00  0.00000000E+00
  0.00000000E+00  0.00000000E+00  0.00000000E+00
  0.00000000E+00  0.00000000E+00  0.00000000E+00
  0.00000000E+00  0.00000000E+00  0.00000000E+00
  0.00000000E+00  0.00000000E+00  0.00000000E+00
  0.00000000E+00  0.00000000E+00  0.00000000E+00
  0.00000000E+00  0.00000000E+00  0.00000000E+00
  0.00000000E+00  0.00000000E+00  0.00000000E+00
  0.00000000E+00  0.00000000E+00  0.00000000E+00
  0.00000000E+00  0.00000000E+00  0.00000000E+00
  0.00000000E+00  0.00000000E+00  0.00000000E+00
  0.00000000E+00  0.00000000E+00  0.00000000E+00
  0.00000000E+00  0.00000000E+00  0.00000000E+00
  0.00000000E+00  0.00000000E+00  0.00000000E+00
  0.00000000E+00  0.00000000E+00  0.00000000E+00
  0.00000000E+00  0.00000000E+00  0.00000000E+00
  0.00000000E+00  0.00000000E+00  0.00000000E+00
  0.00000000E+00  0.00000000E+00  0.00000000E+00
  0.00000000E+00  0.00000000E+00  0.00000000E+00
  0.00000000E+00  0.00000000E+00  0.00000000E+00
  0.00000000E+00  0.00000000E+00  0.00000000E+00
  0.00000000E+00  0.00000000E+00  0.00000000E+00
  0.00000000E+00  0.00000000E+00  0.00000000E+00
  0.00000000E+00  0.00000000E+00  0.00000000E+00
  0.00000000E+00  0.00000000E+00  0.00000000E+00
  0.00000000E+00  0.00000000E+00  0.00000000E+00
  0.00000000E+00  0.00000000E+00  0.00000000E+00
  0.00000000E+00  0.00000000E+00  0.00000000E+00
  0.00000000E+00  0.00000000E+00  0.00000000E+00
