cubic_FA0250MA0375Cs0375                
   1.00000000000000     
    12.7726365685903325   -0.1184272916137508    0.0870149106388008
    -0.1180050383052102   12.6862276201702535   -0.0894814226681114
     0.0868152912034220   -0.0896769993322368   12.6933301006142845
   Cs   I    Pb   C    N    H 
     3    24     8     5     7    28
Direct
  0.2366460190673538  0.7505457463427855  0.2542271048372337
  0.2352419253053617  0.7597702253957058  0.7255209899276670
  0.7618469378498726  0.2498762510334939  0.2405725225330754
  0.0391422923218441  0.0101780015743484  0.2452754640910341
  0.9875793887447957  0.9903721543857631  0.7452420721482194
  0.0200802824070092  0.4981118632529923  0.2482781189678858
  0.0181729828991872  0.5074430552496808  0.7479310602283442
  0.4860574144831860  0.0431107215314686  0.2410406417274988
  0.5252068645936070  0.9696915981470232  0.7395095201313487
  0.5174276637572757  0.4631609128760762  0.2480270419296350
  0.5035717707048665  0.5428570536201144  0.7501198125360143
 -0.0012685028896334  0.2493466805344134  0.9994169214828588
  0.9742072964701598  0.2542967115344137  0.4869157367103221
  0.0576812950054279  0.7495167319936273 -0.0013546352944017
  0.0009269346641428  0.7547795054948302  0.5001346022701278
  0.5308662772137819  0.2483344735591801  0.9665039227797370
  0.5184764445754626  0.2561281609107505  0.5172508213986289
  0.4999427054650624  0.7483433628991997  0.0584298649579514
  0.4740302934879185  0.7554427436023674  0.4583189708390381
  0.2499799058387390  0.5095574792864730  0.5004542780578035
  0.2636586866055507  0.4712979807004872  0.0145083153427687
  0.2497086823047921  0.0083201097151475  0.5211989382512110
  0.2627646532884126  0.0228884892657449  0.9804280960274799
  0.7497562741790406  0.5244796521951557  0.4773768576624892
  0.7639207789555627  0.5126768267686891  0.0184009986212496
  0.7476368054657317  0.9917264031660081  0.4523757601777590
  0.7593420785924420  0.0024046510156025  0.0142214316483533
  0.5115320398451861  0.9932933769202518  0.9982853848436779
  0.4979478916241889  0.0027429962251838  0.4863664825274507
  0.5103209788831021  0.5019337788710537  0.9986143444453729
  0.4998569452926286  0.5074708345797281  0.4993236858731955
  0.0089738335223436  0.9963611213909079  0.9920727765816582
  0.9994200660400114  0.0057420130353454  0.4943982224083068
  0.0135400221992705  0.5017696969579962 -0.0000597273020474
  0.9998099363340932  0.5033221968224751  0.4946930552308339
  0.2458977795257240  0.2504775153335502  0.7716172463263710
  0.7364986430391415  0.7511471892076010  0.7608363804529794
  0.7933011952557323  0.7658947909689390  0.2257700396137627
  0.7921471055164659  0.2644091813707730  0.7628176503942403
  0.2686639381696556  0.2503683871305623  0.2875443617582849
  0.3442553555393039  0.2310461724929711  0.7491095879077125
  0.1723281771387099  0.2634668453258402  0.7019294194215275
  0.8051721880189986  0.6848178476453193  0.7954749243467086
  0.7382494806819402  0.7928901892315718  0.6668652434555256
  0.6937819847234610  0.7275966835690085  0.2760826954701133
  0.6870344812355874  0.2200195370079861  0.7354901048770691
  0.2221949659611511  0.2392489173412110  0.1808426159779580
  0.2228766206086716  0.2559982019092428  0.8545891423126989
  0.3959268633607552  0.2236719372562189  0.8097164850428148
  0.3740943992077409  0.2279448759554859  0.6737723241385357
  0.1853756215775607  0.2597953760837071  0.6225573967357770
  0.0989863594805176  0.2831946010517974  0.7262811062432846
  0.6729294807000540  0.7743216397160272  0.8143620283768565
  0.7942737830424962  0.6506580790060577  0.8677367999044399
  0.8661125526268502  0.6565792221304195  0.7506958458589246
  0.7953344378511683  0.7774901013922216  0.6118192508278181
  0.6831363730759534  0.8473894655539579  0.6497154351565354
  0.6338188145465026  0.7203210759913683  0.2214202124349671
  0.6680999334527770  0.7788912352929632  0.3348068064099737
  0.7026455743134140  0.6550424365204357  0.3119758295045597
  0.7816860795738847  0.8456568307441961  0.1967295511825316
  0.8553035528855600  0.7662294894460402  0.2845069505085557
  0.8124411858604377  0.7125591425584693  0.1600332178219923
  0.6553672589303686  0.2526978002729423  0.6682359431430466
  0.6340306957510975  0.2324627371930704  0.7980577932807317
  0.6875356272536298  0.1393691011115596  0.7225324758685922
  0.7846829338096821  0.3486781386891092  0.7803078632352813
  0.8201350378564063  0.2239510767133149  0.8324294821146190
  0.8458877123356308  0.2524824739359432  0.6959252428873670
  0.2303824733561231  0.3087316759873094  0.1379011096383755
  0.1431208361337044  0.2198612401871332  0.1848553873676992
  0.2561416506763363  0.1791410639730819  0.1361702000407324
  0.2268226956934744  0.3117507812764420  0.3315859863328000
  0.2609559859582801  0.1746776500764820  0.3276778606190680
  0.3512954687889246  0.2734026004084553  0.2786895347630317
 
  0.00000000E+00  0.00000000E+00  0.00000000E+00
  0.00000000E+00  0.00000000E+00  0.00000000E+00
  0.00000000E+00  0.00000000E+00  0.00000000E+00
  0.00000000E+00  0.00000000E+00  0.00000000E+00
  0.00000000E+00  0.00000000E+00  0.00000000E+00
  0.00000000E+00  0.00000000E+00  0.00000000E+00
  0.00000000E+00  0.00000000E+00  0.00000000E+00
  0.00000000E+00  0.00000000E+00  0.00000000E+00
  0.00000000E+00  0.00000000E+00  0.00000000E+00
  0.00000000E+00  0.00000000E+00  0.00000000E+00
  0.00000000E+00  0.00000000E+00  0.00000000E+00
  0.00000000E+00  0.00000000E+00  0.00000000E+00
  0.00000000E+00  0.00000000E+00  0.00000000E+00
  0.00000000E+00  0.00000000E+00  0.00000000E+00
  0.00000000E+00  0.00000000E+00  0.00000000E+00
  0.00000000E+00  0.00000000E+00  0.00000000E+00
  0.00000000E+00  0.00000000E+00  0.00000000E+00
  0.00000000E+00  0.00000000E+00  0.00000000E+00
  0.00000000E+00  0.00000000E+00  0.00000000E+00
  0.00000000E+00  0.00000000E+00  0.00000000E+00
  0.00000000E+00  0.00000000E+00  0.00000000E+00
  0.00000000E+00  0.00000000E+00  0.00000000E+00
  0.00000000E+00  0.00000000E+00  0.00000000E+00
  0.00000000E+00  0.00000000E+00  0.00000000E+00
  0.00000000E+00  0.00000000E+00  0.00000000E+00
  0.00000000E+00  0.00000000E+00  0.00000000E+00
  0.00000000E+00  0.00000000E+00  0.00000000E+00
  0.00000000E+00  0.00000000E+00  0.00000000E+00
  0.00000000E+00  0.00000000E+00  0.00000000E+00
  0.00000000E+00  0.00000000E+00  0.00000000E+00
  0.00000000E+00  0.00000000E+00  0.00000000E+00
  0.00000000E+00  0.00000000E+00  0.00000000E+00
  0.00000000E+00  0.00000000E+00  0.00000000E+00
  0.00000000E+00  0.00000000E+00  0.00000000E+00
  0.00000000E+00  0.00000000E+00  0.00000000E+00
  0.00000000E+00  0.00000000E+00  0.00000000E+00
  0.00000000E+00  0.00000000E+00  0.00000000E+00
  0.00000000E+00  0.00000000E+00  0.00000000E+00
  0.00000000E+00  0.00000000E+00  0.00000000E+00
  0.00000000E+00  0.00000000E+00  0.00000000E+00
  0.00000000E+00  0.00000000E+00  0.00000000E+00
  0.00000000E+00  0.00000000E+00  0.00000000E+00
  0.00000000E+00  0.00000000E+00  0.00000000E+00
  0.00000000E+00  0.00000000E+00  0.00000000E+00
  0.00000000E+00  0.00000000E+00  0.00000000E+00
  0.00000000E+00  0.00000000E+00  0.00000000E+00
  0.00000000E+00  0.00000000E+00  0.00000000E+00
  0.00000000E+00  0.00000000E+00  0.00000000E+00
  0.00000000E+00  0.00000000E+00  0.00000000E+00
  0.00000000E+00  0.00000000E+00  0.00000000E+00
  0.00000000E+00  0.00000000E+00  0.00000000E+00
  0.00000000E+00  0.00000000E+00  0.00000000E+00
  0.00000000E+00  0.00000000E+00  0.00000000E+00
  0.00000000E+00  0.00000000E+00  0.00000000E+00
  0.00000000E+00  0.00000000E+00  0.00000000E+00
  0.00000000E+00  0.00000000E+00  0.00000000E+00
  0.00000000E+00  0.00000000E+00  0.00000000E+00
  0.00000000E+00  0.00000000E+00  0.00000000E+00
  0.00000000E+00  0.00000000E+00  0.00000000E+00
  0.00000000E+00  0.00000000E+00  0.00000000E+00
  0.00000000E+00  0.00000000E+00  0.00000000E+00
  0.00000000E+00  0.00000000E+00  0.00000000E+00
  0.00000000E+00  0.00000000E+00  0.00000000E+00
  0.00000000E+00  0.00000000E+00  0.00000000E+00
  0.00000000E+00  0.00000000E+00  0.00000000E+00
  0.00000000E+00  0.00000000E+00  0.00000000E+00
  0.00000000E+00  0.00000000E+00  0.00000000E+00
  0.00000000E+00  0.00000000E+00  0.00000000E+00
  0.00000000E+00  0.00000000E+00  0.00000000E+00
  0.00000000E+00  0.00000000E+00  0.00000000E+00
  0.00000000E+00  0.00000000E+00  0.00000000E+00
  0.00000000E+00  0.00000000E+00  0.00000000E+00
  0.00000000E+00  0.00000000E+00  0.00000000E+00
  0.00000000E+00  0.00000000E+00  0.00000000E+00
  0.00000000E+00  0.00000000E+00  0.00000000E+00
