hexa_FA0625MA0250Cs0125                 
   1.00000000000000     
    18.6213900513011907   -0.0172888391665673    0.2253902092344011
    -9.3246191124790574   14.5732355486277854   -0.0295152537957847
     0.0925405347165425    0.0441905496930474    7.7553413722621753
   Pb   I    N    C    H    Cs
     8    24    12     7    37     1
Direct
  0.4993359451036368  0.5017954164851701  0.9431605507152244
  0.5049205813818441  0.9990614720022950  0.9392414853919809
  0.0057439448874537  0.5010261750762545  0.9333625643012120
  0.9939474746323443  0.9994430104640116  0.9434075820555371
  0.9925062871150045  0.9986945277918414  0.4432117633377724
  0.0026738113688770  0.4995026863187332  0.4394965981374431
  0.5076151751819682  0.9992523586684061  0.4434879931283620
  0.5013322855456696  0.5048065543592128  0.4425352452128925
  0.4222899455713159  0.0796549155435728  0.1994420348245941
  0.4275990429255183  0.5965920476734626  0.2017084977068374
  0.9204239847787962  0.0913038615033606  0.1964429830633647
  0.9214702771541674  0.5815189685823512  0.1882327789992005
  0.4115560897017741  0.3239621745335398  0.2024986552557497
  0.4217211426467943  0.8222438626482993  0.2023353233466122
  0.9115755612231771  0.3218172255329239  0.1890550711526532
  0.9022290759371719  0.8228116699997441  0.1957576759836178
  0.1569486140718155  0.0788613235919571  0.1926527266884486
  0.1703102616309051  0.5827993866920699  0.1859974828039484
  0.6737374680491430  0.0786464067434893  0.1770829577876426
  0.6630083523658741  0.5862360998286503  0.1814550685224003
  0.0825723152127467  0.4130772621110863  0.6783989913906100
  0.0775879498084341  0.9185407039197381  0.6874007652091686
  0.5821406296525330  0.4205751644486894  0.6906473519149401
  0.5886243262455182  0.9174686505841755  0.6932867681307241
  0.0764682977697965  0.1752979191427064  0.6882869124127639
  0.1040494985093580  0.6770162439196837  0.6804762177101285
  0.6011154302736929  0.1768726766691078  0.6926027550416366
  0.5817746072191367  0.6783517564077201  0.6979120755453130
  0.3336046908031568  0.4159254562268599  0.6949171747411483
  0.3436405294360562  0.9145818578227665  0.6940894231970614
  0.8413975963308893  0.4142284277677747  0.6987808030171377
  0.8251406858468051  0.9170454843916112  0.7140833240864850
  0.2238143722461320  0.3204639003903689  0.1866685618463839
  0.2232597139440298  0.8213286216854906  0.1865898794391209
  0.7220493098895123  0.3200726366276144  0.1870022650259863
  0.1015391438692219  0.3251939272128144  0.1843848522874302
  0.0976732265246238  0.8205077845352733  0.1860416615692828
  0.5977824863960671  0.3213745290507446  0.1858007184645579
  0.2772755435084019  0.1791398931210987  0.6860372787352416
  0.7781186485241057  0.6795427589781649  0.6863729003350239
  0.4026497461232247  0.1795201990323311  0.6876351918545978
  0.9027235263389152  0.6783596604384855  0.6872271518679722
  0.2956524551070757  0.6310046241156826  0.5945596047789772
  0.6513596102688753  0.8439750426092314  0.0948900429353946
  0.1845481636407129  0.3644418456029866  0.1841398568265470
  0.1810331612526439  0.8623701227066923  0.1869324163405246
  0.6809556079979622  0.3623497329984069  0.1865476119718473
  0.3192471189706605  0.1378972374143864  0.6864392633187636
  0.8193439771449920  0.6374825569698123  0.6865720827079937
  0.3381202110308150  0.6515416673451240  0.7647244464299523
  0.6924033352042841  0.8585503577933504  0.2653842677241851
  0.2238971017037793  0.4395745598430548  0.1816794774112262
  0.2184448447746833  0.9374889687406429  0.1880549957397622
  0.7189930273778748  0.4374672507380137  0.1868236076735341
  0.2817827424935131  0.0627515989951405  0.6858369505708993
  0.7810749471239596  0.5623862564764631  0.6861264679952195
  0.1924809049468227  0.2499831147043496  0.1888578168888231
  0.1944508151013602  0.7512297684090427  0.1853473609055608
  0.6923977908583892  0.2499694797344390  0.1853901660399306
  0.2890215649570483  0.3554179383881600  0.1872188542367575
  0.2884714250299107  0.8592819731948821  0.1879281711434664
  0.7872719997765724  0.3569299274313648  0.1868046463408805
  0.0754471207685453  0.3641128790561341  0.1835572596359767
  0.0695201669481039  0.8575533178268461  0.1871041832024211
  0.5704071075129233  0.3591934788551374  0.1863746086525754
  0.0589787433186161  0.2550342882125102  0.1872133351152377
  0.0567272369956340  0.7501610219636501  0.1857316122599269
  0.5563850764799071  0.2511277935192890  0.1864135089470409
  0.3061388663948845  0.2494590182153031  0.6864392969894478
  0.8073351327312486  0.7496462558316870  0.6886778886857768
  0.2120442341217900  0.1413779659517432  0.6849538347803150
  0.7128389950088370  0.6423124387742691  0.6873709548423097
  0.4302000622124426  0.1419742025874619  0.6874634396981102
  0.9293850725081091  0.6399900432631924  0.6871376328143171
  0.4437557801271744  0.2498117412635235  0.6877304218730617
  0.9443197991332006  0.7485758088999738  0.6874677010745297
  0.2643728942253188  0.6650320072367228  0.5797900849781773
  0.2491595939695147  0.5613288164730033  0.5852705201069773
  0.3386300293171991  0.6494921538279510  0.4917309326238733
  0.2884882949328832  0.6252376353913882  0.8667881729740901
  0.3729452984918723  0.6170321171423225  0.7712560918724488
  0.3817917672837259  0.7259148712030732  0.7760919675755548
  0.6353283253674047  0.8920515589595631  0.0736837793539676
  0.5959415502214538  0.7793331403990259  0.0878493629433903
  0.6917053354899152  0.8504507139497893  0.9933924395672031
  0.6470126749621189  0.8505476898451081  0.3671922925028350
  0.7099919081412002  0.8080282336664719  0.2816518645238524
  0.7494732686121268  0.9282738529154622  0.2662511726113113
  0.8278525625511228  0.1610524125378831  0.6853578053546530
 
  0.00000000E+00  0.00000000E+00  0.00000000E+00
  0.00000000E+00  0.00000000E+00  0.00000000E+00
  0.00000000E+00  0.00000000E+00  0.00000000E+00
  0.00000000E+00  0.00000000E+00  0.00000000E+00
  0.00000000E+00  0.00000000E+00  0.00000000E+00
  0.00000000E+00  0.00000000E+00  0.00000000E+00
  0.00000000E+00  0.00000000E+00  0.00000000E+00
  0.00000000E+00  0.00000000E+00  0.00000000E+00
  0.00000000E+00  0.00000000E+00  0.00000000E+00
  0.00000000E+00  0.00000000E+00  0.00000000E+00
  0.00000000E+00  0.00000000E+00  0.00000000E+00
  0.00000000E+00  0.00000000E+00  0.00000000E+00
  0.00000000E+00  0.00000000E+00  0.00000000E+00
  0.00000000E+00  0.00000000E+00  0.00000000E+00
  0.00000000E+00  0.00000000E+00  0.00000000E+00
  0.00000000E+00  0.00000000E+00  0.00000000E+00
  0.00000000E+00  0.00000000E+00  0.00000000E+00
  0.00000000E+00  0.00000000E+00  0.00000000E+00
  0.00000000E+00  0.00000000E+00  0.00000000E+00
  0.00000000E+00  0.00000000E+00  0.00000000E+00
  0.00000000E+00  0.00000000E+00  0.00000000E+00
  0.00000000E+00  0.00000000E+00  0.00000000E+00
  0.00000000E+00  0.00000000E+00  0.00000000E+00
  0.00000000E+00  0.00000000E+00  0.00000000E+00
  0.00000000E+00  0.00000000E+00  0.00000000E+00
  0.00000000E+00  0.00000000E+00  0.00000000E+00
  0.00000000E+00  0.00000000E+00  0.00000000E+00
  0.00000000E+00  0.00000000E+00  0.00000000E+00
  0.00000000E+00  0.00000000E+00  0.00000000E+00
  0.00000000E+00  0.00000000E+00  0.00000000E+00
  0.00000000E+00  0.00000000E+00  0.00000000E+00
  0.00000000E+00  0.00000000E+00  0.00000000E+00
  0.00000000E+00  0.00000000E+00  0.00000000E+00
  0.00000000E+00  0.00000000E+00  0.00000000E+00
  0.00000000E+00  0.00000000E+00  0.00000000E+00
  0.00000000E+00  0.00000000E+00  0.00000000E+00
  0.00000000E+00  0.00000000E+00  0.00000000E+00
  0.00000000E+00  0.00000000E+00  0.00000000E+00
  0.00000000E+00  0.00000000E+00  0.00000000E+00
  0.00000000E+00  0.00000000E+00  0.00000000E+00
  0.00000000E+00  0.00000000E+00  0.00000000E+00
  0.00000000E+00  0.00000000E+00  0.00000000E+00
  0.00000000E+00  0.00000000E+00  0.00000000E+00
  0.00000000E+00  0.00000000E+00  0.00000000E+00
  0.00000000E+00  0.00000000E+00  0.00000000E+00
  0.00000000E+00  0.00000000E+00  0.00000000E+00
  0.00000000E+00  0.00000000E+00  0.00000000E+00
  0.00000000E+00  0.00000000E+00  0.00000000E+00
  0.00000000E+00  0.00000000E+00  0.00000000E+00
  0.00000000E+00  0.00000000E+00  0.00000000E+00
  0.00000000E+00  0.00000000E+00  0.00000000E+00
  0.00000000E+00  0.00000000E+00  0.00000000E+00
  0.00000000E+00  0.00000000E+00  0.00000000E+00
  0.00000000E+00  0.00000000E+00  0.00000000E+00
  0.00000000E+00  0.00000000E+00  0.00000000E+00
  0.00000000E+00  0.00000000E+00  0.00000000E+00
  0.00000000E+00  0.00000000E+00  0.00000000E+00
  0.00000000E+00  0.00000000E+00  0.00000000E+00
  0.00000000E+00  0.00000000E+00  0.00000000E+00
  0.00000000E+00  0.00000000E+00  0.00000000E+00
  0.00000000E+00  0.00000000E+00  0.00000000E+00
  0.00000000E+00  0.00000000E+00  0.00000000E+00
  0.00000000E+00  0.00000000E+00  0.00000000E+00
  0.00000000E+00  0.00000000E+00  0.00000000E+00
  0.00000000E+00  0.00000000E+00  0.00000000E+00
  0.00000000E+00  0.00000000E+00  0.00000000E+00
  0.00000000E+00  0.00000000E+00  0.00000000E+00
  0.00000000E+00  0.00000000E+00  0.00000000E+00
  0.00000000E+00  0.00000000E+00  0.00000000E+00
  0.00000000E+00  0.00000000E+00  0.00000000E+00
  0.00000000E+00  0.00000000E+00  0.00000000E+00
  0.00000000E+00  0.00000000E+00  0.00000000E+00
  0.00000000E+00  0.00000000E+00  0.00000000E+00
  0.00000000E+00  0.00000000E+00  0.00000000E+00
  0.00000000E+00  0.00000000E+00  0.00000000E+00
  0.00000000E+00  0.00000000E+00  0.00000000E+00
  0.00000000E+00  0.00000000E+00  0.00000000E+00
  0.00000000E+00  0.00000000E+00  0.00000000E+00
  0.00000000E+00  0.00000000E+00  0.00000000E+00
  0.00000000E+00  0.00000000E+00  0.00000000E+00
  0.00000000E+00  0.00000000E+00  0.00000000E+00
  0.00000000E+00  0.00000000E+00  0.00000000E+00
  0.00000000E+00  0.00000000E+00  0.00000000E+00
  0.00000000E+00  0.00000000E+00  0.00000000E+00
  0.00000000E+00  0.00000000E+00  0.00000000E+00
  0.00000000E+00  0.00000000E+00  0.00000000E+00
  0.00000000E+00  0.00000000E+00  0.00000000E+00
  0.00000000E+00  0.00000000E+00  0.00000000E+00
  0.00000000E+00  0.00000000E+00  0.00000000E+00
