ortho_FA0750MA0000Cs0250                
   1.00000000000000     
    11.4279208795973712   -0.2115388320226006    0.3374942505645213
    -0.1985713464586260    9.5227808388425057   -0.1135158053387358
     0.5669584184200230   -0.2006663195813969   18.9612641709842684
   Pb   I    Cs   C    N    H 
     8    24     2     6    12    30
Direct
  0.1616946621504953  0.1137948966312752  0.4425374138079168
  0.1653149727479153  0.6076407004181579  0.4392684994544505
  0.8414437523246386  0.3671711821183027  0.5593430454364423
  0.8424096483335873  0.8435999584657934  0.5556278343557803
  0.3642645518725000  0.3508556762813509  0.9392540596386404
  0.3545851091237291  0.8532651858281468  0.9391600028133745
  0.6629857188790050  0.1183778811829153  0.0476320934084361
  0.6607317970862585  0.6121888334352085  0.0490758491223527
  0.1917512946727329  0.1089924820990358  0.0069265387173083
  0.1972172516528984  0.5898513003981530  0.0126267608718124
  0.8445338169498788  0.3743120403977975  0.9978762146226484
  0.8187763223777336  0.8670657502613659  0.9796898822390944
  0.3263742597841780  0.3704661079378497  0.4998732040471167
  0.3360504808390902  0.8693711725041482  0.4903415299961368
  0.6869260253595534  0.0914404251200315  0.4969883126016924
  0.6736097515755085  0.5919480764302656  0.5007284989734844
  0.2863526075764218  0.1406367473860238  0.2939538883485130
  0.2685907150729860  0.5886227867697754  0.2838796309898357
  0.7116771560236723  0.3932714227569804  0.7084033453183564
  0.6890095122129748  0.8518777435855169  0.6969464341956751
  0.2367909189405466  0.3630344410034060  0.7987556191436628
  0.2311419384039614  0.8317004768263181  0.7954256638999745
  0.7901050220489538  0.1146825826825831  0.1882866656242788
  0.7837192303577623  0.6126843096816116  0.1939690258179761
  0.0105258003859513  0.1119711995256852  0.6038072415839256
  0.0304830327291573  0.6148490805756291  0.6024702895663988
  0.9824442270780781  0.3502935506015033  0.3971930300560141
  0.9856768544552031  0.8489874523326998  0.3958900732595479
  0.4779519774132110  0.3564766735066417  0.0998620574831124
  0.4772635286297612  0.8613998428107856  0.0945516140137743
  0.5384416498174729  0.1033974622474293  0.8867807900564992
  0.5421911110086425  0.6148318639840249  0.8896589398663708
  0.4254140924624765  0.6000415857003840  0.6660015287277583
  0.0641045654190616  0.3618507086638576  0.1698269720878053
  0.9369476654669605  0.1597671990602166  0.8295581356461502
  0.4019457645791463  0.1279570173923808  0.6828419128928787
  0.5733165896287618  0.8966451857926351  0.3328959744192406
  0.9110768599161508  0.6209805152753963  0.8403608368586413
  0.0601957743505417  0.9047864198405916  0.1651709784779507
  0.5752856170364192  0.3614116783332647  0.3416874939113958
  0.0050245400740883  0.0758155332456487  0.8606937046529382
  0.8582859104970995  0.1208048225805252  0.7847326220370542
  0.5087971181549110  0.1223178800208152  0.6543263799406713
  0.3063882169964509  0.0901944283591303  0.6510925102869815
  0.6758132483067679  0.8419724435723038  0.3388714114818742
  0.5082376346453907  0.8783596357004543  0.2785344004388896
  0.0075150697131626  0.5778495983373040  0.8655346317392666
  0.9086196809859318  0.6968794443526856  0.7834237292952484
  0.1381750915242331  0.8643524290049047  0.2075634450238251
  0.0205113049666097  0.8310393011592981  0.1119578376533174
  0.6748995457985689  0.2969731271396856  0.3420114614079977
  0.5445572858943898  0.4360511594158983  0.2890832462971714
  0.9462375106265131  0.2717546217302440  0.8422076849835582
  0.0624714476024477  0.1140413131550369  0.8967779717362158
  0.0049346539768213  0.9700937646678031  0.8511315046904638
  0.8390215696634998  0.0188622177105450  0.7697595637292692
  0.8113113250527982  0.1963544322644976  0.7620321319430486
  0.3911359443650313  0.1691425304010874  0.7370549592642145
  0.5775389702617485  0.1604318474789629  0.6823944762517591
  0.5284024750854739  0.0897098383391672  0.6031851379004004
  0.3073382908874342  0.0461724425468806  0.6010991171851897
  0.2267250800797490  0.1019527284083313  0.6772787845619256
  0.5385611632011793  0.9614421606079689  0.3770175089323075
  0.7207580302785433  0.8649160314284668  0.3828072543233955
  0.7151209957434485  0.7804394118310800  0.2995697561376531
  0.5344832083507077  0.8246441170175514  0.2334347517852685
  0.4317270954463570  0.9314317298967658  0.2779616826927712
  0.8274316246257015  0.5917572359819542  0.8682046936296143
  0.0031233610113195  0.5258044859942430  0.9122356722697809
  0.0893655408937056  0.6050645577175631  0.8433961249953114
  0.9833561607924592  0.7189461228058570  0.7527275433492880
  0.8299199434158979  0.7196951602698357  0.7631584083756714
  0.0221105203424308  0.0071395363482598  0.1756977038562651
  0.1682461848408467  0.9337432629006530  0.2453854314185547
  0.1744049954805210  0.7673029416935919  0.2057616571716964
  0.0568436290060337  0.7388822133973352  0.0945978443542190
  0.9578004121707253  0.8696884108156107  0.0817971474150284
  0.5140922000300586  0.3523594394154584  0.3882884891075246
  0.6937549247792952  0.2419818750388746  0.3855091493249795
  0.7310899039218147  0.2902297553682295  0.2979258860472500
  0.6006244406596315  0.4553836218488128  0.2457318190596894
  0.4627688154450110  0.4779304037557009  0.2906002301933434
 
  0.00000000E+00  0.00000000E+00  0.00000000E+00
  0.00000000E+00  0.00000000E+00  0.00000000E+00
  0.00000000E+00  0.00000000E+00  0.00000000E+00
  0.00000000E+00  0.00000000E+00  0.00000000E+00
  0.00000000E+00  0.00000000E+00  0.00000000E+00
  0.00000000E+00  0.00000000E+00  0.00000000E+00
  0.00000000E+00  0.00000000E+00  0.00000000E+00
  0.00000000E+00  0.00000000E+00  0.00000000E+00
  0.00000000E+00  0.00000000E+00  0.00000000E+00
  0.00000000E+00  0.00000000E+00  0.00000000E+00
  0.00000000E+00  0.00000000E+00  0.00000000E+00
  0.00000000E+00  0.00000000E+00  0.00000000E+00
  0.00000000E+00  0.00000000E+00  0.00000000E+00
  0.00000000E+00  0.00000000E+00  0.00000000E+00
  0.00000000E+00  0.00000000E+00  0.00000000E+00
  0.00000000E+00  0.00000000E+00  0.00000000E+00
  0.00000000E+00  0.00000000E+00  0.00000000E+00
  0.00000000E+00  0.00000000E+00  0.00000000E+00
  0.00000000E+00  0.00000000E+00  0.00000000E+00
  0.00000000E+00  0.00000000E+00  0.00000000E+00
  0.00000000E+00  0.00000000E+00  0.00000000E+00
  0.00000000E+00  0.00000000E+00  0.00000000E+00
  0.00000000E+00  0.00000000E+00  0.00000000E+00
  0.00000000E+00  0.00000000E+00  0.00000000E+00
  0.00000000E+00  0.00000000E+00  0.00000000E+00
  0.00000000E+00  0.00000000E+00  0.00000000E+00
  0.00000000E+00  0.00000000E+00  0.00000000E+00
  0.00000000E+00  0.00000000E+00  0.00000000E+00
  0.00000000E+00  0.00000000E+00  0.00000000E+00
  0.00000000E+00  0.00000000E+00  0.00000000E+00
  0.00000000E+00  0.00000000E+00  0.00000000E+00
  0.00000000E+00  0.00000000E+00  0.00000000E+00
  0.00000000E+00  0.00000000E+00  0.00000000E+00
  0.00000000E+00  0.00000000E+00  0.00000000E+00
  0.00000000E+00  0.00000000E+00  0.00000000E+00
  0.00000000E+00  0.00000000E+00  0.00000000E+00
  0.00000000E+00  0.00000000E+00  0.00000000E+00
  0.00000000E+00  0.00000000E+00  0.00000000E+00
  0.00000000E+00  0.00000000E+00  0.00000000E+00
  0.00000000E+00  0.00000000E+00  0.00000000E+00
  0.00000000E+00  0.00000000E+00  0.00000000E+00
  0.00000000E+00  0.00000000E+00  0.00000000E+00
  0.00000000E+00  0.00000000E+00  0.00000000E+00
  0.00000000E+00  0.00000000E+00  0.00000000E+00
  0.00000000E+00  0.00000000E+00  0.00000000E+00
  0.00000000E+00  0.00000000E+00  0.00000000E+00
  0.00000000E+00  0.00000000E+00  0.00000000E+00
  0.00000000E+00  0.00000000E+00  0.00000000E+00
  0.00000000E+00  0.00000000E+00  0.00000000E+00
  0.00000000E+00  0.00000000E+00  0.00000000E+00
  0.00000000E+00  0.00000000E+00  0.00000000E+00
  0.00000000E+00  0.00000000E+00  0.00000000E+00
  0.00000000E+00  0.00000000E+00  0.00000000E+00
  0.00000000E+00  0.00000000E+00  0.00000000E+00
  0.00000000E+00  0.00000000E+00  0.00000000E+00
  0.00000000E+00  0.00000000E+00  0.00000000E+00
  0.00000000E+00  0.00000000E+00  0.00000000E+00
  0.00000000E+00  0.00000000E+00  0.00000000E+00
  0.00000000E+00  0.00000000E+00  0.00000000E+00
  0.00000000E+00  0.00000000E+00  0.00000000E+00
  0.00000000E+00  0.00000000E+00  0.00000000E+00
  0.00000000E+00  0.00000000E+00  0.00000000E+00
  0.00000000E+00  0.00000000E+00  0.00000000E+00
  0.00000000E+00  0.00000000E+00  0.00000000E+00
  0.00000000E+00  0.00000000E+00  0.00000000E+00
  0.00000000E+00  0.00000000E+00  0.00000000E+00
  0.00000000E+00  0.00000000E+00  0.00000000E+00
  0.00000000E+00  0.00000000E+00  0.00000000E+00
  0.00000000E+00  0.00000000E+00  0.00000000E+00
  0.00000000E+00  0.00000000E+00  0.00000000E+00
  0.00000000E+00  0.00000000E+00  0.00000000E+00
  0.00000000E+00  0.00000000E+00  0.00000000E+00
  0.00000000E+00  0.00000000E+00  0.00000000E+00
  0.00000000E+00  0.00000000E+00  0.00000000E+00
  0.00000000E+00  0.00000000E+00  0.00000000E+00
  0.00000000E+00  0.00000000E+00  0.00000000E+00
  0.00000000E+00  0.00000000E+00  0.00000000E+00
  0.00000000E+00  0.00000000E+00  0.00000000E+00
  0.00000000E+00  0.00000000E+00  0.00000000E+00
  0.00000000E+00  0.00000000E+00  0.00000000E+00
  0.00000000E+00  0.00000000E+00  0.00000000E+00
  0.00000000E+00  0.00000000E+00  0.00000000E+00
