cubic_FA0000MA0625Cs0375                
   1.00000000000000     
    12.7211503386200615    0.0460738383659372    0.0108877877805131
     0.0467774128391739   12.7372030156480189    0.1094281869709565
     0.0096657904085911    0.1091049684587160   12.7221933800608635
   Cs   I    Pb   C    N    H 
     3    24     8     5     5    30
Direct
  0.2481217122666953  0.2441559696465257  0.2496784577077601
  0.7629768273262042  0.2423600912340898  0.7595849266078110
  0.7481905261994375  0.7698401662670415  0.2330970992096134
  0.9939893718833062  0.9705335067061949  0.2620555700424633
  0.0363840603970786  0.0131210469544807  0.7605513471392000
  0.0017069522537117  0.5140391896089574  0.2635454027999721
  0.0066063771662525  0.4780337404415785  0.7626659774467937
  0.5248714764696876  0.0228242673798562  0.2603431594993725
  0.5031621753297338  0.9910620565991560  0.7590290183110753
  0.4976735769927608  0.4837942998528441  0.2630596777578577
  0.5087780800249948  0.5432798835712909  0.7601113076960494
  0.0044559689835738  0.2515039456724357  0.0276733221727368
  0.0285911735207680  0.2556858692869653  0.4971589635342644
  0.0392514271576295  0.7506794597575690  0.0047289959288420
  0.9929492986076542  0.7548156958244828  0.5397993994243745
  0.5424511902360518  0.2597515449023182  0.9837926410105728
  0.4770424968359082  0.2580487763559895  0.5323853716258390
  0.4983686993306757  0.7576699771541647  0.0429006114193805
  0.5358126574506334  0.7582597597420307  0.4778718277749028
  0.2518269482957184  0.5452122811281688  0.5018826669685008
  0.2611199492678817  0.4889249180335145  0.0186302423063895
  0.2598474342151984  0.0054833545997105  0.4841919961178358
  0.2668774699855039  0.0338456499521933  0.0259856993840940
  0.7535103691986155  0.4809200306038313  0.5260876913237608
  0.7605152872998308  0.5282893459653619  0.0275375957353218
  0.7606917069673014  0.0248951208354687  0.5330678761803223
  0.7672200064688557  0.9948687512310878 -0.0007472184147549
  0.5135961967427315  0.0044052788044816  0.0051494972812072
  0.5091707037166286  0.0072692250242658  0.5112046015526602
  0.5119826598761168  0.5108057115717615  0.0057121674942290
  0.4997008122146326  0.5078606628246478  0.5128116162407169
  0.0174886651857957  0.0043113303410192  0.0125433980181046
  0.0088540178676124  0.0038745150991365  0.5068073488527790
  0.0063758380468489  0.4971716967526330  0.0114886309514820
  0.0034542857609662  0.5020326802737957  0.5109298269244116
  0.7558078523312264  0.7578311392685292  0.7810900249196354
  0.7821225778455014  0.2557280208768845  0.2522141699758154
  0.2697968077538067  0.2759219294010836  0.7795466864608651
  0.2799158000163348  0.7813577975701330  0.2627786858538118
  0.2774713580841725  0.7768970155750969  0.7496962963197084
  0.7424000406015419  0.7341375972687694  0.6676186525197962
  0.6658549011531832  0.2581166116584608  0.2389681823821247
  0.2319517403152851  0.2075122061937714  0.6938356767392587
  0.2244076815266565  0.6872396508664932  0.2232660151633320
  0.1804090514613126  0.7123230656630933  0.7600371172817364
  0.6687275787088279  0.7556712456213188  0.6382327714320255
  0.7510263623192824  0.6544823929673584  0.6520247631140093
  0.7986099800607747  0.7724205470291362  0.6218344756199166
  0.7031270067317784  0.7076341257289400  0.8275525444896210
  0.8377434728420771  0.7418721817440451  0.8032154108983034
  0.7366560090724165  0.8407819464951158  0.7933690614865972
  0.6440826418353702  0.2632827059925397  0.1597420129332616
  0.6300880917156064  0.3221457580276068  0.2746128847382207
  0.6304539136346787  0.1894269293157250  0.2675876775392185
  0.8146212327297030  0.3288164138707557  0.2197683895405873
  0.8009570135116817  0.2477577215569702  0.3359785666490765
  0.8140035154099365  0.1886234628205561  0.2094836166537322
  0.1744497806377133  0.2438081172100563  0.6471055221297904
  0.1969546002132362  0.1390820819444408  0.7232125045623279
  0.2925597641685134  0.1864801064133436  0.6435092672693603
  0.2037435479873903  0.2944595818330012  0.8315255037127769
  0.3313135256974187  0.2336709570798844  0.8235961179960350
  0.3017820879701861  0.3480975191218117  0.7443393212601083
  0.1567011933864247  0.7080441212868005  0.1816906150026286
  0.2022880841987416  0.6367108024622833  0.2840889812075472
  0.2696280995188505  0.6436104450687293  0.1713598964110899
  0.2287127020926080  0.8211952326779010  0.3190406908141074
  0.3529097108463147  0.7557773679734131  0.3013308060060401
  0.2973362120730653  0.8338916905377123  0.1959864072073126
  0.1272777812456444  0.7288410577814824  0.6993705996864353
  0.1413640563084394  0.7259665623198065  0.8311062200430130
  0.1962685744375718  0.6327150422504708  0.7573797897233632
  0.2549475734255721  0.8599471685653192  0.7535128647667642
  0.3312380919450675  0.7560833437380665  0.8140637684324837
  0.3147241740522352  0.7605655495562104  0.6739093667285934
 
  0.00000000E+00  0.00000000E+00  0.00000000E+00
  0.00000000E+00  0.00000000E+00  0.00000000E+00
  0.00000000E+00  0.00000000E+00  0.00000000E+00
  0.00000000E+00  0.00000000E+00  0.00000000E+00
  0.00000000E+00  0.00000000E+00  0.00000000E+00
  0.00000000E+00  0.00000000E+00  0.00000000E+00
  0.00000000E+00  0.00000000E+00  0.00000000E+00
  0.00000000E+00  0.00000000E+00  0.00000000E+00
  0.00000000E+00  0.00000000E+00  0.00000000E+00
  0.00000000E+00  0.00000000E+00  0.00000000E+00
  0.00000000E+00  0.00000000E+00  0.00000000E+00
  0.00000000E+00  0.00000000E+00  0.00000000E+00
  0.00000000E+00  0.00000000E+00  0.00000000E+00
  0.00000000E+00  0.00000000E+00  0.00000000E+00
  0.00000000E+00  0.00000000E+00  0.00000000E+00
  0.00000000E+00  0.00000000E+00  0.00000000E+00
  0.00000000E+00  0.00000000E+00  0.00000000E+00
  0.00000000E+00  0.00000000E+00  0.00000000E+00
  0.00000000E+00  0.00000000E+00  0.00000000E+00
  0.00000000E+00  0.00000000E+00  0.00000000E+00
  0.00000000E+00  0.00000000E+00  0.00000000E+00
  0.00000000E+00  0.00000000E+00  0.00000000E+00
  0.00000000E+00  0.00000000E+00  0.00000000E+00
  0.00000000E+00  0.00000000E+00  0.00000000E+00
  0.00000000E+00  0.00000000E+00  0.00000000E+00
  0.00000000E+00  0.00000000E+00  0.00000000E+00
  0.00000000E+00  0.00000000E+00  0.00000000E+00
  0.00000000E+00  0.00000000E+00  0.00000000E+00
  0.00000000E+00  0.00000000E+00  0.00000000E+00
  0.00000000E+00  0.00000000E+00  0.00000000E+00
  0.00000000E+00  0.00000000E+00  0.00000000E+00
  0.00000000E+00  0.00000000E+00  0.00000000E+00
  0.00000000E+00  0.00000000E+00  0.00000000E+00
  0.00000000E+00  0.00000000E+00  0.00000000E+00
  0.00000000E+00  0.00000000E+00  0.00000000E+00
  0.00000000E+00  0.00000000E+00  0.00000000E+00
  0.00000000E+00  0.00000000E+00  0.00000000E+00
  0.00000000E+00  0.00000000E+00  0.00000000E+00
  0.00000000E+00  0.00000000E+00  0.00000000E+00
  0.00000000E+00  0.00000000E+00  0.00000000E+00
  0.00000000E+00  0.00000000E+00  0.00000000E+00
  0.00000000E+00  0.00000000E+00  0.00000000E+00
  0.00000000E+00  0.00000000E+00  0.00000000E+00
  0.00000000E+00  0.00000000E+00  0.00000000E+00
  0.00000000E+00  0.00000000E+00  0.00000000E+00
  0.00000000E+00  0.00000000E+00  0.00000000E+00
  0.00000000E+00  0.00000000E+00  0.00000000E+00
  0.00000000E+00  0.00000000E+00  0.00000000E+00
  0.00000000E+00  0.00000000E+00  0.00000000E+00
  0.00000000E+00  0.00000000E+00  0.00000000E+00
  0.00000000E+00  0.00000000E+00  0.00000000E+00
  0.00000000E+00  0.00000000E+00  0.00000000E+00
  0.00000000E+00  0.00000000E+00  0.00000000E+00
  0.00000000E+00  0.00000000E+00  0.00000000E+00
  0.00000000E+00  0.00000000E+00  0.00000000E+00
  0.00000000E+00  0.00000000E+00  0.00000000E+00
  0.00000000E+00  0.00000000E+00  0.00000000E+00
  0.00000000E+00  0.00000000E+00  0.00000000E+00
  0.00000000E+00  0.00000000E+00  0.00000000E+00
  0.00000000E+00  0.00000000E+00  0.00000000E+00
  0.00000000E+00  0.00000000E+00  0.00000000E+00
  0.00000000E+00  0.00000000E+00  0.00000000E+00
  0.00000000E+00  0.00000000E+00  0.00000000E+00
  0.00000000E+00  0.00000000E+00  0.00000000E+00
  0.00000000E+00  0.00000000E+00  0.00000000E+00
  0.00000000E+00  0.00000000E+00  0.00000000E+00
  0.00000000E+00  0.00000000E+00  0.00000000E+00
  0.00000000E+00  0.00000000E+00  0.00000000E+00
  0.00000000E+00  0.00000000E+00  0.00000000E+00
  0.00000000E+00  0.00000000E+00  0.00000000E+00
  0.00000000E+00  0.00000000E+00  0.00000000E+00
  0.00000000E+00  0.00000000E+00  0.00000000E+00
  0.00000000E+00  0.00000000E+00  0.00000000E+00
  0.00000000E+00  0.00000000E+00  0.00000000E+00
  0.00000000E+00  0.00000000E+00  0.00000000E+00
