cubic_FA0125MA0750Cs0125                
   1.00000000000000     
    12.7282879888205436    0.1226800856976187    0.1274995029782222
     0.1219431879763165   12.7008625401514994    0.0193059591530292
     0.1269452103692880    0.0196124138317592   12.6584824579975166
   Cs   I    Pb   C    N    H 
     1    24     8     7     8    41
Direct
  0.7501788106047834  0.7363068488979264  0.2591816050643879
  0.0600356180202934  0.0035420758854085  0.2501780120556149
  0.9851915409334681  0.0358509075078406  0.7533641559668233
  0.0319554536485983  0.5243427927100552  0.2504966683513442
  0.0096019038515048  0.5106781366451454  0.7528551020980021
  0.4942310942433292  0.0089534782751141  0.2637199449706903
  0.5331876596644634  0.9830165467371386  0.7631914405888772
  0.5341749268204584  0.4928421008187515  0.2582567625074217
  0.5108189301702253  0.5086900106488579  0.7600959652220529
  0.0050595622861417  0.2660860463734972  0.0113422057328603
  0.0223817700691150  0.2636092606716962  0.4897765847950897
  0.9905519926230711  0.7663281994993190  0.0103313316965468
  0.9819545568922272  0.7647427767285693  0.4954154211751095
  0.4829388191023999  0.2536133227922474  0.0197382164562960
  0.5265636718952680  0.2552552362099497  0.5199405796625229
  0.4809628600569399  0.7528918360141289  0.0420207755631602
  0.5393134839733510  0.7560052282959339  0.5076788315218000
  0.2653504461777219  0.5090837381350288  0.5202454724313378
  0.2504938260040424  0.5043496012092938 -0.0015086763559592
  0.2603693720326680  0.9942415068156556  0.5535799650745965
  0.2497083733170603  0.0051548759142771  0.9762597356680207
  0.7673027935441616  0.5125013473054902  0.5031280580675767
  0.7490558601572468  0.5363085914039292  0.9908455425660976
  0.7628204600072164  0.0264795656404227  0.4918268690990860
  0.7479940264622283  0.0332809585227901  0.0247088907251725
  0.4940893273238177  0.0007498276521563  0.0095922726395557
  0.5076559748827031  0.0045811372874359  0.5111191899853482
  0.4991639204096018  0.5058738244076846  0.0105541387446186
  0.5100721514754473  0.5036660006680042  0.5062743861053203
  0.0007456342717476  0.0141431251554894  0.0037314776493764
  0.0123297669006635  0.0120206911263621  0.4972671213030401
  0.9983560331055530  0.5143495831877947  0.0023798055279625
  0.0175849437968264  0.5155681175876862  0.4987427269168100
  0.2455466859255790  0.7213801374028802  0.7594779914034563
  0.2700851528132427  0.7620806956929366  0.2925426434212368
  0.2759751782977543  0.2634894790394036  0.2877071660105056
  0.7827754500354067  0.2875758580058915  0.7483512986078681
  0.7852775657031984  0.2723789489045322  0.2711979482613008
  0.7847751855400271  0.7841524033508933  0.7581892105130423
  0.2822745623976704  0.2547478212363020  0.7615862409998464
  0.3423812784031265  0.7523073286336149  0.7426969040840085
  0.1608559126400138  0.7754919998066744  0.7338710738127797
  0.2226609550527008  0.7379019670509578  0.1887919760702388
  0.2325791059111609  0.2332192533363101  0.1836808497529832
  0.7158189612911747  0.1930896965747010  0.7386843490022134
  0.6867250010804781  0.2273891723073296  0.2298640664669244
  0.7224086926649337  0.6919233844211649  0.7257321086801564
  0.1708105621357210  0.2581877847232890  0.7273293870813131
  0.2346729411593376  0.6454549709440538  0.7991524658740790
  0.4028787041736950  0.7019551987826048  0.7609113198411368
  0.3594588554463330  0.8215218278369126  0.7055667671752630
  0.1646372125546373  0.8459316061200630  0.6939881461994283
  0.0887961688491134  0.7438330352731091  0.7481503883023990
  0.1689014678265098  0.7958109155201273  0.1664214777331458
  0.1820855740077197  0.6673555383600297  0.1918090097952124
  0.2804568654646932  0.7317785351948837  0.1295671477629888
  0.2076750191751500  0.7637386010984044  0.3534974437364674
  0.3285465646626755  0.7005058231448233  0.3104539274739010
  0.3077179666082367  0.8388233831536209  0.2868012280097443
  0.1720576104636213  0.2831166009515135  0.1595882478501372
  0.2012693864262822  0.1580431099988932  0.1867923460359608
  0.2907934508595835  0.2339226514272417  0.1246636530926834
  0.2134849412753792  0.2580732892635016  0.3483085521753259
  0.3408735864057081  0.2088114025483770  0.3057282464894488
  0.3043735588106352  0.3442088461184862  0.2823164561060866
  0.6421155121152340  0.2128472611330307  0.7097264173160862
  0.7053742626733699  0.1540097781551319  0.8100678343226805
  0.7483253214330118  0.1386739841399992  0.6852585322812226
  0.7445343444957969  0.3432513532256201  0.8036043238586549
  0.8595085784116594  0.2620563231730815  0.7777780681033464
  0.7917042434689012  0.3240034410402005  0.6701280800538467
  0.6444461497892200  0.2813632207218768  0.1850589915459572
  0.6366376517703232  0.2032177659904581  0.2903427083014533
  0.7025145324242587  0.1622913576280485  0.1813308628282261
  0.7662095382807694  0.3481191760924991  0.3088645738933419
  0.8177568835507387  0.2173919710160800  0.3294114312191326
  0.8411766683780892  0.2826640463520453  0.2051338593564511
  0.6520849000045467  0.7154779056917561  0.6915832000076280
  0.7050791643290750  0.6427868380469581  0.7892442948455228
  0.7610414812991422  0.6456198198566200  0.6684996557644793
  0.7397732198966833  0.8282813986480597  0.8186381518520937
  0.8591164070380153  0.7553681789385529  0.7905348050624997
  0.7990937794033962  0.8339906178621941  0.6888215344426410
  0.1638003607476169  0.2621712268289486  0.6454910966825776
  0.1299375105816363  0.3237685153795357  0.7569987883167356
  0.1298260339569755  0.1915994580307636  0.7510774432536225
  0.3200553034264820  0.3277222653945466  0.7364515876415787
  0.2833778305995274  0.2472544174453373  0.8477461593856176
  0.3220193286520156  0.1864805889997197  0.7248814366497780
 
  0.00000000E+00  0.00000000E+00  0.00000000E+00
  0.00000000E+00  0.00000000E+00  0.00000000E+00
  0.00000000E+00  0.00000000E+00  0.00000000E+00
  0.00000000E+00  0.00000000E+00  0.00000000E+00
  0.00000000E+00  0.00000000E+00  0.00000000E+00
  0.00000000E+00  0.00000000E+00  0.00000000E+00
  0.00000000E+00  0.00000000E+00  0.00000000E+00
  0.00000000E+00  0.00000000E+00  0.00000000E+00
  0.00000000E+00  0.00000000E+00  0.00000000E+00
  0.00000000E+00  0.00000000E+00  0.00000000E+00
  0.00000000E+00  0.00000000E+00  0.00000000E+00
  0.00000000E+00  0.00000000E+00  0.00000000E+00
  0.00000000E+00  0.00000000E+00  0.00000000E+00
  0.00000000E+00  0.00000000E+00  0.00000000E+00
  0.00000000E+00  0.00000000E+00  0.00000000E+00
  0.00000000E+00  0.00000000E+00  0.00000000E+00
  0.00000000E+00  0.00000000E+00  0.00000000E+00
  0.00000000E+00  0.00000000E+00  0.00000000E+00
  0.00000000E+00  0.00000000E+00  0.00000000E+00
  0.00000000E+00  0.00000000E+00  0.00000000E+00
  0.00000000E+00  0.00000000E+00  0.00000000E+00
  0.00000000E+00  0.00000000E+00  0.00000000E+00
  0.00000000E+00  0.00000000E+00  0.00000000E+00
  0.00000000E+00  0.00000000E+00  0.00000000E+00
  0.00000000E+00  0.00000000E+00  0.00000000E+00
  0.00000000E+00  0.00000000E+00  0.00000000E+00
  0.00000000E+00  0.00000000E+00  0.00000000E+00
  0.00000000E+00  0.00000000E+00  0.00000000E+00
  0.00000000E+00  0.00000000E+00  0.00000000E+00
  0.00000000E+00  0.00000000E+00  0.00000000E+00
  0.00000000E+00  0.00000000E+00  0.00000000E+00
  0.00000000E+00  0.00000000E+00  0.00000000E+00
  0.00000000E+00  0.00000000E+00  0.00000000E+00
  0.00000000E+00  0.00000000E+00  0.00000000E+00
  0.00000000E+00  0.00000000E+00  0.00000000E+00
  0.00000000E+00  0.00000000E+00  0.00000000E+00
  0.00000000E+00  0.00000000E+00  0.00000000E+00
  0.00000000E+00  0.00000000E+00  0.00000000E+00
  0.00000000E+00  0.00000000E+00  0.00000000E+00
  0.00000000E+00  0.00000000E+00  0.00000000E+00
  0.00000000E+00  0.00000000E+00  0.00000000E+00
  0.00000000E+00  0.00000000E+00  0.00000000E+00
  0.00000000E+00  0.00000000E+00  0.00000000E+00
  0.00000000E+00  0.00000000E+00  0.00000000E+00
  0.00000000E+00  0.00000000E+00  0.00000000E+00
  0.00000000E+00  0.00000000E+00  0.00000000E+00
  0.00000000E+00  0.00000000E+00  0.00000000E+00
  0.00000000E+00  0.00000000E+00  0.00000000E+00
  0.00000000E+00  0.00000000E+00  0.00000000E+00
  0.00000000E+00  0.00000000E+00  0.00000000E+00
  0.00000000E+00  0.00000000E+00  0.00000000E+00
  0.00000000E+00  0.00000000E+00  0.00000000E+00
  0.00000000E+00  0.00000000E+00  0.00000000E+00
  0.00000000E+00  0.00000000E+00  0.00000000E+00
  0.00000000E+00  0.00000000E+00  0.00000000E+00
  0.00000000E+00  0.00000000E+00  0.00000000E+00
  0.00000000E+00  0.00000000E+00  0.00000000E+00
  0.00000000E+00  0.00000000E+00  0.00000000E+00
  0.00000000E+00  0.00000000E+00  0.00000000E+00
  0.00000000E+00  0.00000000E+00  0.00000000E+00
  0.00000000E+00  0.00000000E+00  0.00000000E+00
  0.00000000E+00  0.00000000E+00  0.00000000E+00
  0.00000000E+00  0.00000000E+00  0.00000000E+00
  0.00000000E+00  0.00000000E+00  0.00000000E+00
  0.00000000E+00  0.00000000E+00  0.00000000E+00
  0.00000000E+00  0.00000000E+00  0.00000000E+00
  0.00000000E+00  0.00000000E+00  0.00000000E+00
  0.00000000E+00  0.00000000E+00  0.00000000E+00
  0.00000000E+00  0.00000000E+00  0.00000000E+00
  0.00000000E+00  0.00000000E+00  0.00000000E+00
  0.00000000E+00  0.00000000E+00  0.00000000E+00
  0.00000000E+00  0.00000000E+00  0.00000000E+00
  0.00000000E+00  0.00000000E+00  0.00000000E+00
  0.00000000E+00  0.00000000E+00  0.00000000E+00
  0.00000000E+00  0.00000000E+00  0.00000000E+00
  0.00000000E+00  0.00000000E+00  0.00000000E+00
  0.00000000E+00  0.00000000E+00  0.00000000E+00
  0.00000000E+00  0.00000000E+00  0.00000000E+00
  0.00000000E+00  0.00000000E+00  0.00000000E+00
  0.00000000E+00  0.00000000E+00  0.00000000E+00
  0.00000000E+00  0.00000000E+00  0.00000000E+00
  0.00000000E+00  0.00000000E+00  0.00000000E+00
  0.00000000E+00  0.00000000E+00  0.00000000E+00
  0.00000000E+00  0.00000000E+00  0.00000000E+00
  0.00000000E+00  0.00000000E+00  0.00000000E+00
  0.00000000E+00  0.00000000E+00  0.00000000E+00
  0.00000000E+00  0.00000000E+00  0.00000000E+00
  0.00000000E+00  0.00000000E+00  0.00000000E+00
  0.00000000E+00  0.00000000E+00  0.00000000E+00
