cubic_FA0625MA0375Cs0000                
   1.00000000000000     
    12.7238937309906692   -0.2376116868384541    0.1750644908028289
    -0.2378568500260101   12.6841599171703585   -0.2048533703010391
     0.1745768387827878   -0.2036725520769710   12.7215108790102054
   Cs   I    Pb   C    N    H 
     0    24     8     8    13    43
Direct
  0.9861546487701849  0.9949153309432917  0.2460650243348979
  0.0220495721988682  0.0310862984952766  0.7459423120498748
  0.9934240039986380  0.5042201829093018  0.2516199828165026
  0.0485664362817701  0.4802455332327976  0.7481801102375236
  0.5059521561873874  0.0333888646983433  0.2449344111268711
  0.4942527518189976  0.0105020994714944  0.7451040032603387
  0.5389253601506222  0.5013502778258337  0.2478108882717634
  0.5099701252034679  0.5034111512939136  0.7481027603302028
  0.0124553868464888  0.2470936901221555  0.0225217364353805
  0.0310636734763490  0.2507582572040608  0.4873737724672283
  0.0244004761916739  0.7473664150000021  0.0116163673983829
  0.9679520384614918  0.7503583481782038  0.5208016375741122
  0.4862050391661835  0.2587660059480971  0.9961355341542475
  0.4590203122156167  0.2561415320791840  0.5152955683012342
  0.5117265626562074  0.7587335434511122  0.9969498007037800
  0.5068132132633294  0.7575024991296788  0.5036420249653936
  0.2546493269555235  0.5389629508050243  0.4680856989000950
  0.2637791535901285  0.5129937879913584  0.0172768321185129
  0.2441276736005001  0.9734919500241427  0.4648131302377414
  0.2529590059616093  0.9916237735666632  0.0065280376520187
  0.7545530317100148  0.4573751418713622  0.5169623713941259
  0.7653389054466587  0.4920971237712410  0.9654707008016546
  0.7479068745375432  0.0263359832339042  0.5084207982369979
  0.7549346593002957  0.0015626844182699 -0.0001490228798212
  0.5010695073625194  0.0056968162034255  0.9964907086568149
  0.4985936732562178  0.0078425408375194  0.4897832184676345
  0.5123462991995683  0.5107118207287488  0.9989978992718334
  0.5069851034107754  0.5046544434905358  0.4959186667380425
  0.0048483386414839  0.9978650163213210  0.9966338968171419
  0.9944395571853658  0.0009874643226933  0.4948621875992196
  0.0116144574311051  0.4968031621567959  0.9987534131941571
  0.0061660291429260  0.4997960866070289  0.5012329080016241
  0.2367163087169570  0.7579905842034166  0.7742418268270544
  0.7512682316954146  0.2128556442063430  0.7510120437159986
  0.7361773115546584  0.7488921493533871  0.7736556666737323
  0.7406590210972112  0.7341481565741341  0.2590597685939279
  0.7489710596866570  0.2822806852763764  0.2487524550540465
  0.2747225068625377  0.2680631333581120  0.2734789803616475
  0.2677666543187687  0.2582740817658749  0.7880452745524409
  0.2989784053369983  0.7655994605463674  0.2320306021504987
  0.3148827536023008  0.6933580510062604  0.7691479213701983
  0.2176559232475587  0.8270354371418209  0.7032017031417611
  0.8451282880367728  0.2598361703693572  0.7509231134564686
  0.6623223726512114  0.2586504147867642  0.7367601030820763
  0.8153161100122196  0.6855291648804516  0.7648541892747694
  0.7180326819065131  0.8243931244912014  0.7088766350968492
  0.8425862947423318  0.7355057729571762  0.2415513405626330
  0.6788946232141222  0.8099046580480124  0.2345126674011918
  0.8078174541303383  0.2279525053318006  0.3087154063888953
  0.7248754211553136  0.2558623173678393  0.1516296042242266
  0.2525076905392403  0.2322607817799489  0.1633681455859107
  0.2296179685738746  0.2391529925925814  0.6791933644420949
  0.1940695617585674  0.7383998595657237  0.2812384296384922
  0.1832110158012006  0.7538375482472705  0.8430613916439219
  0.3224393360421617  0.6409343377677644  0.8275336196113369
  0.3691085176069032  0.6918407908699564  0.7083044526214789
  0.2623449387941256  0.8367673323466793  0.6358117362378292
  0.1563104512898601  0.8765158991853049  0.7151026677426557
  0.7466049446727657  0.1282998752588569  0.7652780650919698
  0.9091540790644645  0.2153750324258265  0.7613149344457666
  0.8588794534256297  0.3385430895021337  0.7388183519142774
  0.6570970563931128  0.3372540161173056  0.7223073248341271
  0.5943205891726814  0.2129230342232194  0.7370781623108424
  0.6809221287345026  0.7386848077411088  0.8404962596906947
  0.8195491289791034  0.6266664051122246  0.8180319212586780
  0.8693621384380515  0.6897784701220095  0.7035561817590594
  0.7635527745622841  0.8384139708108025  0.6429261563917703
  0.6537942115903225  0.8700079813699185  0.7214168919129222
  0.7034697070895942  0.6648427451419965  0.2956425756561885
  0.8847692886344466  0.6706125302030722  0.2578355333943317
  0.8830407831412739  0.7985803546966842  0.2093587398088731
  0.7051253155341536  0.8745688165479255  0.1940407860757749
  0.6002660811245560  0.8027100752656883  0.2505808643584067
  0.7173474759659686  0.3551770510398647  0.2827765873723853
  0.8237576415475513  0.2565167107774525  0.3826992381449111
  0.8427985250469966  0.1597943688484182  0.2836805641136917
  0.7479998210672931  0.1873424782033363  0.1139885744980712
  0.6743171443254200  0.3005293132147767  0.1127848911072673
  0.1829143293514259  0.2610045770425622  0.1359433149581291
  0.2455319487084791  0.1505132817992726  0.1543111814241898
  0.3139807096529677  0.2553024167219581  0.1118659730535470
  0.2076026813828372  0.2453976991554764  0.3248735533434501
  0.3458151681640819  0.2302622938591521  0.2977040457351920
  0.2871826730433615  0.3540769258616274  0.2761164712138826
  0.1725572855266597  0.2913654248123914  0.6607323834487812
  0.1952827728761603  0.1641371942113137  0.6699684333611774
  0.2919674087666621  0.2465690823862716  0.6236080720608257
  0.2023221772609149  0.2429959721917266  0.8439801090916825
  0.3316108282501666  0.2048330341644755  0.8004634848793056
  0.2966993428828959  0.3404593104273955  0.7964252064871798
  0.1368871462899941  0.7280497621918700  0.2251235106816398
  0.1720428691580256  0.7976311086159679  0.3347146436002389
  0.1965758776232228  0.6689276665675300  0.3230144042007781
  0.2959893390028370  0.8430867109675293  0.1969148704932776
  0.3575383017749231  0.7674824083525184  0.2936456792869461
  0.3168062848209290  0.7052752587455222  0.1713177566608884
 
  0.00000000E+00  0.00000000E+00  0.00000000E+00
  0.00000000E+00  0.00000000E+00  0.00000000E+00
  0.00000000E+00  0.00000000E+00  0.00000000E+00
  0.00000000E+00  0.00000000E+00  0.00000000E+00
  0.00000000E+00  0.00000000E+00  0.00000000E+00
  0.00000000E+00  0.00000000E+00  0.00000000E+00
  0.00000000E+00  0.00000000E+00  0.00000000E+00
  0.00000000E+00  0.00000000E+00  0.00000000E+00
  0.00000000E+00  0.00000000E+00  0.00000000E+00
  0.00000000E+00  0.00000000E+00  0.00000000E+00
  0.00000000E+00  0.00000000E+00  0.00000000E+00
  0.00000000E+00  0.00000000E+00  0.00000000E+00
  0.00000000E+00  0.00000000E+00  0.00000000E+00
  0.00000000E+00  0.00000000E+00  0.00000000E+00
  0.00000000E+00  0.00000000E+00  0.00000000E+00
  0.00000000E+00  0.00000000E+00  0.00000000E+00
  0.00000000E+00  0.00000000E+00  0.00000000E+00
  0.00000000E+00  0.00000000E+00  0.00000000E+00
  0.00000000E+00  0.00000000E+00  0.00000000E+00
  0.00000000E+00  0.00000000E+00  0.00000000E+00
  0.00000000E+00  0.00000000E+00  0.00000000E+00
  0.00000000E+00  0.00000000E+00  0.00000000E+00
  0.00000000E+00  0.00000000E+00  0.00000000E+00
  0.00000000E+00  0.00000000E+00  0.00000000E+00
  0.00000000E+00  0.00000000E+00  0.00000000E+00
  0.00000000E+00  0.00000000E+00  0.00000000E+00
  0.00000000E+00  0.00000000E+00  0.00000000E+00
  0.00000000E+00  0.00000000E+00  0.00000000E+00
  0.00000000E+00  0.00000000E+00  0.00000000E+00
  0.00000000E+00  0.00000000E+00  0.00000000E+00
  0.00000000E+00  0.00000000E+00  0.00000000E+00
  0.00000000E+00  0.00000000E+00  0.00000000E+00
  0.00000000E+00  0.00000000E+00  0.00000000E+00
  0.00000000E+00  0.00000000E+00  0.00000000E+00
  0.00000000E+00  0.00000000E+00  0.00000000E+00
  0.00000000E+00  0.00000000E+00  0.00000000E+00
  0.00000000E+00  0.00000000E+00  0.00000000E+00
  0.00000000E+00  0.00000000E+00  0.00000000E+00
  0.00000000E+00  0.00000000E+00  0.00000000E+00
  0.00000000E+00  0.00000000E+00  0.00000000E+00
  0.00000000E+00  0.00000000E+00  0.00000000E+00
  0.00000000E+00  0.00000000E+00  0.00000000E+00
  0.00000000E+00  0.00000000E+00  0.00000000E+00
  0.00000000E+00  0.00000000E+00  0.00000000E+00
  0.00000000E+00  0.00000000E+00  0.00000000E+00
  0.00000000E+00  0.00000000E+00  0.00000000E+00
  0.00000000E+00  0.00000000E+00  0.00000000E+00
  0.00000000E+00  0.00000000E+00  0.00000000E+00
  0.00000000E+00  0.00000000E+00  0.00000000E+00
  0.00000000E+00  0.00000000E+00  0.00000000E+00
  0.00000000E+00  0.00000000E+00  0.00000000E+00
  0.00000000E+00  0.00000000E+00  0.00000000E+00
  0.00000000E+00  0.00000000E+00  0.00000000E+00
  0.00000000E+00  0.00000000E+00  0.00000000E+00
  0.00000000E+00  0.00000000E+00  0.00000000E+00
  0.00000000E+00  0.00000000E+00  0.00000000E+00
  0.00000000E+00  0.00000000E+00  0.00000000E+00
  0.00000000E+00  0.00000000E+00  0.00000000E+00
  0.00000000E+00  0.00000000E+00  0.00000000E+00
  0.00000000E+00  0.00000000E+00  0.00000000E+00
  0.00000000E+00  0.00000000E+00  0.00000000E+00
  0.00000000E+00  0.00000000E+00  0.00000000E+00
  0.00000000E+00  0.00000000E+00  0.00000000E+00
  0.00000000E+00  0.00000000E+00  0.00000000E+00
  0.00000000E+00  0.00000000E+00  0.00000000E+00
  0.00000000E+00  0.00000000E+00  0.00000000E+00
  0.00000000E+00  0.00000000E+00  0.00000000E+00
  0.00000000E+00  0.00000000E+00  0.00000000E+00
  0.00000000E+00  0.00000000E+00  0.00000000E+00
  0.00000000E+00  0.00000000E+00  0.00000000E+00
  0.00000000E+00  0.00000000E+00  0.00000000E+00
  0.00000000E+00  0.00000000E+00  0.00000000E+00
  0.00000000E+00  0.00000000E+00  0.00000000E+00
  0.00000000E+00  0.00000000E+00  0.00000000E+00
  0.00000000E+00  0.00000000E+00  0.00000000E+00
  0.00000000E+00  0.00000000E+00  0.00000000E+00
  0.00000000E+00  0.00000000E+00  0.00000000E+00
  0.00000000E+00  0.00000000E+00  0.00000000E+00
  0.00000000E+00  0.00000000E+00  0.00000000E+00
  0.00000000E+00  0.00000000E+00  0.00000000E+00
  0.00000000E+00  0.00000000E+00  0.00000000E+00
  0.00000000E+00  0.00000000E+00  0.00000000E+00
  0.00000000E+00  0.00000000E+00  0.00000000E+00
  0.00000000E+00  0.00000000E+00  0.00000000E+00
  0.00000000E+00  0.00000000E+00  0.00000000E+00
  0.00000000E+00  0.00000000E+00  0.00000000E+00
  0.00000000E+00  0.00000000E+00  0.00000000E+00
  0.00000000E+00  0.00000000E+00  0.00000000E+00
  0.00000000E+00  0.00000000E+00  0.00000000E+00
  0.00000000E+00  0.00000000E+00  0.00000000E+00
  0.00000000E+00  0.00000000E+00  0.00000000E+00
  0.00000000E+00  0.00000000E+00  0.00000000E+00
  0.00000000E+00  0.00000000E+00  0.00000000E+00
  0.00000000E+00  0.00000000E+00  0.00000000E+00
  0.00000000E+00  0.00000000E+00  0.00000000E+00
  0.00000000E+00  0.00000000E+00  0.00000000E+00
