cubic_FA0375MA0375Cs0250                
   1.00000000000000     
    12.7201230844494813   -0.1252030864765549    0.2204887460837051
    -0.1245990166060865   12.7472135946138767   -0.0500553382818556
     0.2207943280130185   -0.0507942396367851   12.6843098682821491
   Cs   I    Pb   C    N    H 
     2    24     8     6     9    33
Direct
  0.2638208499779668  0.7419790048336282  0.2606197479582805
  0.7440136688501744  0.7452673258787078  0.7523160619084999
  0.0507998949303703  0.9658870637985774  0.2599249118229119
  0.9639050567120353  0.0088400866868076  0.7635092944729686
  0.0009212021772720  0.5250048606844598  0.2598780771359616
  0.0309748830092157  0.4609161278459047  0.7596424371059204
  0.4537952107458874  0.0006349214949489  0.2521044894484771
  0.5382163132088521  0.9755989383171134  0.7490787608838172
  0.5407048125906507  0.4711361945216656  0.2501451576073034
  0.5037379098459648  0.4871165983833490  0.7530720472184842
  0.9901193255069921  0.2475539958956361  0.0535139077195720
  0.0088145932854231  0.2446949052809245  0.4942398769205923
  0.9790437915996116  0.7452710930883557  0.9646825611668260
  0.9898874189925043  0.7458939189315770  0.5449138179398012
  0.4771564662000484  0.2428493826293119  0.0050703256879215
  0.4861454647919090  0.2440950258136960  0.5080565104460033
  0.4932132616691816  0.7430992463473841  0.0051848665055519
  0.5003125893284505  0.7445750550596223  0.4794348913065994
  0.2551242976162142  0.5088202975433244  0.4903577511377138
  0.2512730386599714  0.5109643956064679  0.0319860619377369
  0.2512554759936903  0.9922627494745414  0.5428337399974413
  0.2418330426109918  0.9888266455822597  0.9811382457082630
  0.7529457624942597  0.5007761451997050  0.5303917025872359
  0.7532074130304391  0.4890616486823819 -0.0147214117633850
  0.7534032394501157  0.9911978926154915  0.4837035155947548
  0.7394657979134335  0.0071027936230717  0.0495475014544698
  0.4929136566639830  0.9927926544636880  0.9955971196190989
  0.5001172442271733  0.9937952016887706  0.4988208211729953
  0.4973378575197465  0.4910091870164514  0.0026856270789444
  0.5055894109566984  0.4952063712490826  0.4955103030139086
  0.9931196995346464  0.9907172409263930  0.0139852867843649
  0.0027761966514483  0.9957275970927855  0.5052942218625852
  0.0045815937522066  0.4994361385485962  0.0049667890213453
  0.0033970887294106  0.4973620403870133  0.5117962467846557
  0.2466528915692419  0.7305213267736116  0.7786554590109577
  0.7561315543130189  0.2791045857473187  0.7519420179139016
  0.7447357823417129  0.7694703711442314  0.2626032466086681
  0.2574632106389787  0.2508753266505247  0.7740370268240484
  0.2563831409568429  0.2730358720665524  0.2752594842184122
  0.7566776403902699  0.2396110663940705  0.2955626631252139
  0.3388549656046656  0.7105202850069480  0.7339793177378491
  0.1852542295700500  0.8063366479001195  0.7514240961042998
  0.7990384363094706  0.2270212923859888  0.8275996209587225
  0.7314564749470140  0.2397411298473979  0.6597949326789803
  0.8207617976997628  0.7320981997655269  0.3175214454141146
  0.7093671799570374  0.7262037607493399  0.1760503948336588
  0.2406084894369711  0.2712485002742966  0.6603680437407519
  0.2427924532222892  0.2062385938435486  0.1793565895706680
  0.7248891300203879  0.2589515203532337  0.1855890350603298
  0.2192956701917264  0.6801217525738102  0.8439172208155274
  0.3806743593318505  0.6474597577275724  0.7579594031915425
  0.3702681938360524  0.7515039856934876  0.6709582148689521
  0.2052084471340196  0.8584510084334090  0.6920383474007683
  0.1151160035403935  0.8159388670159149  0.7916128785971801
  0.7386174524817066  0.3616331660273903  0.7668978839691846
  0.8203987160685847  0.2659495445075548  0.8944140499044828
  0.8260111070938888  0.1519303907303718  0.8169664812226954
  0.7438170576038394  0.1635829805807142  0.6373644760878245
  0.6990769346620137  0.2878036163402736  0.6063190876078391
  0.7085045981754388  0.8420194136057197  0.2908849026226883
  0.8443147984778143  0.7696419639281116  0.3844443368791646
  0.8615571667835774  0.6658482493928870  0.2954939260456203
  0.7373579046402454  0.6575312776390110  0.1448788452806825
  0.6484939194848524  0.7586881576651561  0.1376814607260776
  0.2407471527220664  0.3510354660422616  0.6437717829251286
  0.1692493208137874  0.2409798991347573  0.6347779591178545
  0.3002859992730987  0.2390051237800334  0.6127529357594356
  0.1957746349103599  0.2902015691484659  0.8210385904860826
  0.2538379212943818  0.1660846823132118  0.7875546227063749
  0.3351623095880444  0.2824737150771015  0.7936660216051021
  0.1729167789880770  0.2225713875157132  0.1425860861982411
  0.2405132515276096  0.1270083094489619  0.1970252944973322
  0.3050223032339628  0.2178734060790323  0.1243712520702766
  0.1902487717524636  0.2576693099203364  0.3311222121850874
  0.3303668422848048  0.2527570221633323  0.3111268841498147
  0.2579890315498147  0.3556321807813112  0.2516793441428571
  0.6721257178004709  0.3204748852481611  0.1836575752251577
  0.6907632979907717  0.1922025349212850  0.1523311811783937
  0.7905089505874467  0.2772340585413674  0.1375287305234550
  0.6855029872276338  0.2278223317390647  0.3456070480647918
  0.8047826607638632  0.1693770635414945  0.2959720308355367
  0.8022141588685994  0.3077807660074222  0.3229500421105369
 
  0.00000000E+00  0.00000000E+00  0.00000000E+00
  0.00000000E+00  0.00000000E+00  0.00000000E+00
  0.00000000E+00  0.00000000E+00  0.00000000E+00
  0.00000000E+00  0.00000000E+00  0.00000000E+00
  0.00000000E+00  0.00000000E+00  0.00000000E+00
  0.00000000E+00  0.00000000E+00  0.00000000E+00
  0.00000000E+00  0.00000000E+00  0.00000000E+00
  0.00000000E+00  0.00000000E+00  0.00000000E+00
  0.00000000E+00  0.00000000E+00  0.00000000E+00
  0.00000000E+00  0.00000000E+00  0.00000000E+00
  0.00000000E+00  0.00000000E+00  0.00000000E+00
  0.00000000E+00  0.00000000E+00  0.00000000E+00
  0.00000000E+00  0.00000000E+00  0.00000000E+00
  0.00000000E+00  0.00000000E+00  0.00000000E+00
  0.00000000E+00  0.00000000E+00  0.00000000E+00
  0.00000000E+00  0.00000000E+00  0.00000000E+00
  0.00000000E+00  0.00000000E+00  0.00000000E+00
  0.00000000E+00  0.00000000E+00  0.00000000E+00
  0.00000000E+00  0.00000000E+00  0.00000000E+00
  0.00000000E+00  0.00000000E+00  0.00000000E+00
  0.00000000E+00  0.00000000E+00  0.00000000E+00
  0.00000000E+00  0.00000000E+00  0.00000000E+00
  0.00000000E+00  0.00000000E+00  0.00000000E+00
  0.00000000E+00  0.00000000E+00  0.00000000E+00
  0.00000000E+00  0.00000000E+00  0.00000000E+00
  0.00000000E+00  0.00000000E+00  0.00000000E+00
  0.00000000E+00  0.00000000E+00  0.00000000E+00
  0.00000000E+00  0.00000000E+00  0.00000000E+00
  0.00000000E+00  0.00000000E+00  0.00000000E+00
  0.00000000E+00  0.00000000E+00  0.00000000E+00
  0.00000000E+00  0.00000000E+00  0.00000000E+00
  0.00000000E+00  0.00000000E+00  0.00000000E+00
  0.00000000E+00  0.00000000E+00  0.00000000E+00
  0.00000000E+00  0.00000000E+00  0.00000000E+00
  0.00000000E+00  0.00000000E+00  0.00000000E+00
  0.00000000E+00  0.00000000E+00  0.00000000E+00
  0.00000000E+00  0.00000000E+00  0.00000000E+00
  0.00000000E+00  0.00000000E+00  0.00000000E+00
  0.00000000E+00  0.00000000E+00  0.00000000E+00
  0.00000000E+00  0.00000000E+00  0.00000000E+00
  0.00000000E+00  0.00000000E+00  0.00000000E+00
  0.00000000E+00  0.00000000E+00  0.00000000E+00
  0.00000000E+00  0.00000000E+00  0.00000000E+00
  0.00000000E+00  0.00000000E+00  0.00000000E+00
  0.00000000E+00  0.00000000E+00  0.00000000E+00
  0.00000000E+00  0.00000000E+00  0.00000000E+00
  0.00000000E+00  0.00000000E+00  0.00000000E+00
  0.00000000E+00  0.00000000E+00  0.00000000E+00
  0.00000000E+00  0.00000000E+00  0.00000000E+00
  0.00000000E+00  0.00000000E+00  0.00000000E+00
  0.00000000E+00  0.00000000E+00  0.00000000E+00
  0.00000000E+00  0.00000000E+00  0.00000000E+00
  0.00000000E+00  0.00000000E+00  0.00000000E+00
  0.00000000E+00  0.00000000E+00  0.00000000E+00
  0.00000000E+00  0.00000000E+00  0.00000000E+00
  0.00000000E+00  0.00000000E+00  0.00000000E+00
  0.00000000E+00  0.00000000E+00  0.00000000E+00
  0.00000000E+00  0.00000000E+00  0.00000000E+00
  0.00000000E+00  0.00000000E+00  0.00000000E+00
  0.00000000E+00  0.00000000E+00  0.00000000E+00
  0.00000000E+00  0.00000000E+00  0.00000000E+00
  0.00000000E+00  0.00000000E+00  0.00000000E+00
  0.00000000E+00  0.00000000E+00  0.00000000E+00
  0.00000000E+00  0.00000000E+00  0.00000000E+00
  0.00000000E+00  0.00000000E+00  0.00000000E+00
  0.00000000E+00  0.00000000E+00  0.00000000E+00
  0.00000000E+00  0.00000000E+00  0.00000000E+00
  0.00000000E+00  0.00000000E+00  0.00000000E+00
  0.00000000E+00  0.00000000E+00  0.00000000E+00
  0.00000000E+00  0.00000000E+00  0.00000000E+00
  0.00000000E+00  0.00000000E+00  0.00000000E+00
  0.00000000E+00  0.00000000E+00  0.00000000E+00
  0.00000000E+00  0.00000000E+00  0.00000000E+00
  0.00000000E+00  0.00000000E+00  0.00000000E+00
  0.00000000E+00  0.00000000E+00  0.00000000E+00
  0.00000000E+00  0.00000000E+00  0.00000000E+00
  0.00000000E+00  0.00000000E+00  0.00000000E+00
  0.00000000E+00  0.00000000E+00  0.00000000E+00
  0.00000000E+00  0.00000000E+00  0.00000000E+00
  0.00000000E+00  0.00000000E+00  0.00000000E+00
  0.00000000E+00  0.00000000E+00  0.00000000E+00
  0.00000000E+00  0.00000000E+00  0.00000000E+00
