hexa_FA0125MA0500Cs0375                 
   1.00000000000000     
    17.8811817193764711    0.1020589824606723   -0.0237138791921934
    -8.8696362704814344   14.8456754152647274   -0.1463761980006265
    -0.0101777470765627   -0.0823220034604705    7.7495537362871154
   Pb   I    N    C    H    Cs
     8    24     6     5    29     3
Direct
  0.5123373895234925  0.4983558338526662  0.9376615835170008
  0.5003488832761849  0.9938633790274592  0.9451638679000983
  0.9950746051407173  0.4991133520065051  0.9438202547831845
  0.0090066919760793  0.0015264384356739  0.9449520714583207
  0.0102701060481609  0.0023620379662310  0.4467640298460587
  0.9949914776457207  0.4995242615813117  0.4445958480900750
  0.5005470565492308  0.9924303633933018  0.4474369369802137
  0.5132594934867091  0.5002883865134561  0.4435782975967505
  0.4096254590876985  0.0685085017520779  0.2012870780086201
  0.4197322483876048  0.5765030610549103  0.1909482530389062
  0.9289942459955305  0.0899040513973125  0.2004388084569756
  0.9151945858829938  0.5883959030441256  0.1967159896517952
  0.4412454123055113  0.3271359416168015  0.1876379269943205
  0.4211358078250841  0.8203648366885030  0.1877697218556142
  0.8982591697527483  0.3274960643568363  0.1900785102216825
  0.9335572955076530  0.8298187178570610  0.1922378308869596
  0.1831041763677522  0.0861345114269346  0.1983619888613023
  0.1688071885835308  0.5892659703491832  0.2035906434909104
  0.6709055260014455  0.0917914864722355  0.2071503756900048
  0.6817592820037509  0.5995871060701131  0.1945104580323574
  0.0823368555634958  0.4144379188831056  0.6920501410470582
  0.0971506937620695  0.9155847757261462  0.6958367086029459
  0.6069870929425066  0.4238986801376874  0.6874621034645988
  0.5956528194375487  0.9133522927276597  0.6948851278335405
  0.0965669464631457  0.1757510625749772  0.7074543247236478
  0.0841723463237371  0.6739872642279762  0.7051862040651050
  0.5883474439852402  0.1690676339342403  0.7069371376442694
  0.5965670611253244  0.6748916119798690  0.6995344623462850
  0.3454833083746368  0.4017697269123046  0.6854556272987473
  0.3335351850611904  0.8936857651654752  0.6956673637624569
  0.8299503430757306  0.4176554114245984  0.6927673880329127
  0.8441937058679565  0.9094167106834329  0.6910209582433967
  0.2289595223706169  0.3200985621004657  0.1858959608152759
  0.1020914619334368  0.3269498911062978  0.1872882078628045
  0.2685917527496451  0.6330846877786469  0.6703826735693267
  0.6126194183625902  0.8011394433985489  0.2023911812403886
  0.2758145023897798  0.1409671246047053  0.6396017724776852
  0.7714572156062157  0.1369812073349049  0.6564815201707291
  0.1868942454659547  0.3639756692371344  0.1865018558267302
  0.3616148896263156  0.6589856043012410  0.6905799909136769
  0.7061209695009044  0.8711126733710975  0.1822764267049118
  0.3630927213312921  0.1637557020502766  0.7062784325606365
  0.8626766431222336  0.1612806416723085  0.6955329468583319
  0.2259147061398191  0.4374530182256714  0.1863955923688186
  0.1988876315086797  0.2512091239546500  0.1858802968016469
  0.2954391372510214  0.3544043640579214  0.1855231077998686
  0.0745969622651196  0.3663046607756237  0.1879967781654509
  0.0599114519956646  0.2585751812899723  0.1881270877479845
  0.2555922873686970  0.6491679613773345  0.5499952126789432
  0.2501678754365650  0.6650430369971880  0.7600486667977620
  0.2252355552297973  0.5638673527332874  0.6829620367987773
  0.4018288626097511  0.7323593932086331  0.6894862974456969
  0.3701999151633392  0.6335803121486214  0.8131632984705639
  0.3787966316588205  0.6293663538579202  0.5828898239456158
  0.5701010786498092  0.8212351272449703  0.1569115139291238
  0.5973130909069367  0.7858965930310400  0.3307262843850527
  0.5963389568321442  0.7412611141425032  0.1389336556667555
  0.7172724560929834  0.9339894976287124  0.2420035383910316
  0.7460786739599008  0.8482045966365522  0.2455169512331088
  0.7207483699436754  0.8807303557815959  0.0444629159315723
  0.2745797941175892  0.1471158389066664  0.5065854368750556
  0.2534623626803331  0.1810301336971200  0.6929032119640709
  0.2284329722028296  0.0743850334629391  0.6652690987599180
  0.4087756761796360  0.2353707530794673  0.6878305335123351
  0.3580821949298903  0.1483539611614381  0.8438640924244214
  0.3843990385731891  0.1232564361542687  0.6350046285945362
  0.7629261949793930  0.1492983674037829  0.5293243652154196
  0.7499187009235829  0.1714333595408490  0.7326744197258258
  0.7268886798481006  0.0683397398841582  0.6742444621016950
  0.9050877171091677  0.2342839576248344  0.6900525673855862
  0.8655692465709859  0.1379156211524915  0.8246107161240459
  0.8825670476483792  0.1283976599481598  0.5991629839841393
  0.8246007263348286  0.6662989140075050  0.6877628986136490
  0.1619416136507178  0.8291736599596961  0.1782393466986615
  0.6703845116019240  0.3405112882003991  0.1853561031333688
 
  0.00000000E+00  0.00000000E+00  0.00000000E+00
  0.00000000E+00  0.00000000E+00  0.00000000E+00
  0.00000000E+00  0.00000000E+00  0.00000000E+00
  0.00000000E+00  0.00000000E+00  0.00000000E+00
  0.00000000E+00  0.00000000E+00  0.00000000E+00
  0.00000000E+00  0.00000000E+00  0.00000000E+00
  0.00000000E+00  0.00000000E+00  0.00000000E+00
  0.00000000E+00  0.00000000E+00  0.00000000E+00
  0.00000000E+00  0.00000000E+00  0.00000000E+00
  0.00000000E+00  0.00000000E+00  0.00000000E+00
  0.00000000E+00  0.00000000E+00  0.00000000E+00
  0.00000000E+00  0.00000000E+00  0.00000000E+00
  0.00000000E+00  0.00000000E+00  0.00000000E+00
  0.00000000E+00  0.00000000E+00  0.00000000E+00
  0.00000000E+00  0.00000000E+00  0.00000000E+00
  0.00000000E+00  0.00000000E+00  0.00000000E+00
  0.00000000E+00  0.00000000E+00  0.00000000E+00
  0.00000000E+00  0.00000000E+00  0.00000000E+00
  0.00000000E+00  0.00000000E+00  0.00000000E+00
  0.00000000E+00  0.00000000E+00  0.00000000E+00
  0.00000000E+00  0.00000000E+00  0.00000000E+00
  0.00000000E+00  0.00000000E+00  0.00000000E+00
  0.00000000E+00  0.00000000E+00  0.00000000E+00
  0.00000000E+00  0.00000000E+00  0.00000000E+00
  0.00000000E+00  0.00000000E+00  0.00000000E+00
  0.00000000E+00  0.00000000E+00  0.00000000E+00
  0.00000000E+00  0.00000000E+00  0.00000000E+00
  0.00000000E+00  0.00000000E+00  0.00000000E+00
  0.00000000E+00  0.00000000E+00  0.00000000E+00
  0.00000000E+00  0.00000000E+00  0.00000000E+00
  0.00000000E+00  0.00000000E+00  0.00000000E+00
  0.00000000E+00  0.00000000E+00  0.00000000E+00
  0.00000000E+00  0.00000000E+00  0.00000000E+00
  0.00000000E+00  0.00000000E+00  0.00000000E+00
  0.00000000E+00  0.00000000E+00  0.00000000E+00
  0.00000000E+00  0.00000000E+00  0.00000000E+00
  0.00000000E+00  0.00000000E+00  0.00000000E+00
  0.00000000E+00  0.00000000E+00  0.00000000E+00
  0.00000000E+00  0.00000000E+00  0.00000000E+00
  0.00000000E+00  0.00000000E+00  0.00000000E+00
  0.00000000E+00  0.00000000E+00  0.00000000E+00
  0.00000000E+00  0.00000000E+00  0.00000000E+00
  0.00000000E+00  0.00000000E+00  0.00000000E+00
  0.00000000E+00  0.00000000E+00  0.00000000E+00
  0.00000000E+00  0.00000000E+00  0.00000000E+00
  0.00000000E+00  0.00000000E+00  0.00000000E+00
  0.00000000E+00  0.00000000E+00  0.00000000E+00
  0.00000000E+00  0.00000000E+00  0.00000000E+00
  0.00000000E+00  0.00000000E+00  0.00000000E+00
  0.00000000E+00  0.00000000E+00  0.00000000E+00
  0.00000000E+00  0.00000000E+00  0.00000000E+00
  0.00000000E+00  0.00000000E+00  0.00000000E+00
  0.00000000E+00  0.00000000E+00  0.00000000E+00
  0.00000000E+00  0.00000000E+00  0.00000000E+00
  0.00000000E+00  0.00000000E+00  0.00000000E+00
  0.00000000E+00  0.00000000E+00  0.00000000E+00
  0.00000000E+00  0.00000000E+00  0.00000000E+00
  0.00000000E+00  0.00000000E+00  0.00000000E+00
  0.00000000E+00  0.00000000E+00  0.00000000E+00
  0.00000000E+00  0.00000000E+00  0.00000000E+00
  0.00000000E+00  0.00000000E+00  0.00000000E+00
  0.00000000E+00  0.00000000E+00  0.00000000E+00
  0.00000000E+00  0.00000000E+00  0.00000000E+00
  0.00000000E+00  0.00000000E+00  0.00000000E+00
  0.00000000E+00  0.00000000E+00  0.00000000E+00
  0.00000000E+00  0.00000000E+00  0.00000000E+00
  0.00000000E+00  0.00000000E+00  0.00000000E+00
  0.00000000E+00  0.00000000E+00  0.00000000E+00
  0.00000000E+00  0.00000000E+00  0.00000000E+00
  0.00000000E+00  0.00000000E+00  0.00000000E+00
  0.00000000E+00  0.00000000E+00  0.00000000E+00
  0.00000000E+00  0.00000000E+00  0.00000000E+00
  0.00000000E+00  0.00000000E+00  0.00000000E+00
  0.00000000E+00  0.00000000E+00  0.00000000E+00
  0.00000000E+00  0.00000000E+00  0.00000000E+00
