hexa_FA0125MA0250Cs0625                 
   1.00000000000000     
    17.6790396676236305    0.0546300632021472    1.0807886366824258
    -8.7939795497931446   14.8191932849931298   -0.6861216176429473
     0.4740417680791539   -0.0766778191156800    7.9066583279736671
   Pb   I    N    C    H    Cs
     8    24     4     3    17     5
Direct
  0.5058527385719550  0.5041354391955019  0.9314556638919652
  0.5009824322555562  0.9994059572549773  0.9795362243531996
  0.0035109261458612  0.5078781889316684  0.9373395737208084
  0.0025386513840365  0.0001147796789309  0.9407129182542010
  0.0028901544289174  0.0006862966181298  0.4423973967091428
  0.0007478502018520  0.5035001474215356  0.4364495286920810
  0.5012272924925938  0.0014952460051176  0.4789332482511107
  0.5087760373401385  0.5034024435691007  0.4360874623987248
  0.4132661694053034  0.0824991044943969  0.2670672627995189
  0.4218749053302596  0.5893950201263792  0.2314567994649926
  0.9154631383766816  0.0854948148668001  0.2298317843379677
  0.9434120812100054  0.6144755233277494  0.2309498919486191
  0.4356933115313096  0.3299485229415995  0.1711451780317954
  0.4106220791325918  0.8272953298046952  0.2391512893514076
  0.8984726236288363  0.3343061978809929  0.1728509789524318
  0.9041508620925028  0.8281755390715003  0.1892927825668454
  0.1728896421728867  0.0743082628716346  0.1574046409606360
  0.1692038336877350  0.5714210897438560  0.1651637002184187
  0.6697646691209006  0.0753332981877208  0.1970875120198328
  0.6776278351477257  0.5848016059299946  0.1420666402381701
  0.0621589525570773  0.3965885790353058  0.6611481064144951
  0.0756611929143810  0.9034455193866174  0.6537612231284117
  0.5854943431524762  0.4141082189330603  0.6611923756590568
  0.5885933460818061  0.9182359843407892  0.6914825247085458
  0.0998548907684199  0.1712744677519660  0.6959361613967768
  0.1150861939895902  0.6774652092848705  0.6752150377835309
  0.5940196316125277  0.1768561764173982  0.7502502428036204
  0.5989409408572135  0.6771225133407154  0.6868444604691524
  0.3392087335511205  0.4164443833068289  0.7042559313465424
  0.3332301535181554  0.9288036285442474  0.7624092068525514
  0.8376337476791132  0.4545477782252100  0.7293691915766443
  0.8344711337853890  0.9269326950899528  0.7250810641347931
  0.2235757972003591  0.3098092381326760  0.1956344623987517
  0.0952994661897875  0.3127591333056567  0.1734996327041351
  0.6653521361630159  0.3595167868859011  0.0701834513412008
  0.2853341181925273  0.6213615736211734  0.6008601345286884
  0.1805855810819588  0.3522058907193676  0.1824803699688206
  0.6707983483526446  0.3368443431380805  0.2445974474263258
  0.3438728220227471  0.6669668081202361  0.7407285332892246
  0.2184480681609691  0.4258671005277760  0.1789751853609008
  0.1946170757113597  0.2408563887436743  0.1947957927106063
  0.2905577394714119  0.3452468135929396  0.1985894104722271
  0.0667548284567207  0.3509330256228911  0.1660893158333731
  0.0532380410920876  0.2441511286338704  0.1809625906489929
  0.6406655862870905  0.4030249632458445  0.0747315905400476
  0.6252143145507427  0.3022288614634114 -0.0000642512071346
  0.7266662692297551  0.3912728374599935 -0.0006762588587395
  0.6044806729949950  0.3042335476181300  0.3114086965610233
  0.6974404739893236  0.2913562406154607  0.2348741188596890
  0.7142258481911408  0.3993871726811501  0.3116554496330665
  0.2363456952356325  0.6390614138476474  0.6069166714229982
  0.2530143699547650  0.5518833939425285  0.6094312174017413
  0.3205567346230120  0.6380699389091939  0.4819942631209665
  0.3040736332612273  0.6433832426361499  0.8627950499737691
  0.3961652240643360  0.6499808866028847  0.7275999293216983
  0.3723533245977387  0.7399128421808245  0.7318351941990086
  0.8305480625721035  0.6843413546717647  0.6798016903732579
  0.3372928757596630  0.1703120821522198  0.6962387619027589
  0.1824937333898725  0.8363650625310034  0.2032546228715591
  0.6590019202431743  0.8327096523092655  0.1934885990533348
  0.8224010665705562  0.1572626459135063  0.7081360610839518
 
  0.00000000E+00  0.00000000E+00  0.00000000E+00
  0.00000000E+00  0.00000000E+00  0.00000000E+00
  0.00000000E+00  0.00000000E+00  0.00000000E+00
  0.00000000E+00  0.00000000E+00  0.00000000E+00
  0.00000000E+00  0.00000000E+00  0.00000000E+00
  0.00000000E+00  0.00000000E+00  0.00000000E+00
  0.00000000E+00  0.00000000E+00  0.00000000E+00
  0.00000000E+00  0.00000000E+00  0.00000000E+00
  0.00000000E+00  0.00000000E+00  0.00000000E+00
  0.00000000E+00  0.00000000E+00  0.00000000E+00
  0.00000000E+00  0.00000000E+00  0.00000000E+00
  0.00000000E+00  0.00000000E+00  0.00000000E+00
  0.00000000E+00  0.00000000E+00  0.00000000E+00
  0.00000000E+00  0.00000000E+00  0.00000000E+00
  0.00000000E+00  0.00000000E+00  0.00000000E+00
  0.00000000E+00  0.00000000E+00  0.00000000E+00
  0.00000000E+00  0.00000000E+00  0.00000000E+00
  0.00000000E+00  0.00000000E+00  0.00000000E+00
  0.00000000E+00  0.00000000E+00  0.00000000E+00
  0.00000000E+00  0.00000000E+00  0.00000000E+00
  0.00000000E+00  0.00000000E+00  0.00000000E+00
  0.00000000E+00  0.00000000E+00  0.00000000E+00
  0.00000000E+00  0.00000000E+00  0.00000000E+00
  0.00000000E+00  0.00000000E+00  0.00000000E+00
  0.00000000E+00  0.00000000E+00  0.00000000E+00
  0.00000000E+00  0.00000000E+00  0.00000000E+00
  0.00000000E+00  0.00000000E+00  0.00000000E+00
  0.00000000E+00  0.00000000E+00  0.00000000E+00
  0.00000000E+00  0.00000000E+00  0.00000000E+00
  0.00000000E+00  0.00000000E+00  0.00000000E+00
  0.00000000E+00  0.00000000E+00  0.00000000E+00
  0.00000000E+00  0.00000000E+00  0.00000000E+00
  0.00000000E+00  0.00000000E+00  0.00000000E+00
  0.00000000E+00  0.00000000E+00  0.00000000E+00
  0.00000000E+00  0.00000000E+00  0.00000000E+00
  0.00000000E+00  0.00000000E+00  0.00000000E+00
  0.00000000E+00  0.00000000E+00  0.00000000E+00
  0.00000000E+00  0.00000000E+00  0.00000000E+00
  0.00000000E+00  0.00000000E+00  0.00000000E+00
  0.00000000E+00  0.00000000E+00  0.00000000E+00
  0.00000000E+00  0.00000000E+00  0.00000000E+00
  0.00000000E+00  0.00000000E+00  0.00000000E+00
  0.00000000E+00  0.00000000E+00  0.00000000E+00
  0.00000000E+00  0.00000000E+00  0.00000000E+00
  0.00000000E+00  0.00000000E+00  0.00000000E+00
  0.00000000E+00  0.00000000E+00  0.00000000E+00
  0.00000000E+00  0.00000000E+00  0.00000000E+00
  0.00000000E+00  0.00000000E+00  0.00000000E+00
  0.00000000E+00  0.00000000E+00  0.00000000E+00
  0.00000000E+00  0.00000000E+00  0.00000000E+00
  0.00000000E+00  0.00000000E+00  0.00000000E+00
  0.00000000E+00  0.00000000E+00  0.00000000E+00
  0.00000000E+00  0.00000000E+00  0.00000000E+00
  0.00000000E+00  0.00000000E+00  0.00000000E+00
  0.00000000E+00  0.00000000E+00  0.00000000E+00
  0.00000000E+00  0.00000000E+00  0.00000000E+00
  0.00000000E+00  0.00000000E+00  0.00000000E+00
  0.00000000E+00  0.00000000E+00  0.00000000E+00
  0.00000000E+00  0.00000000E+00  0.00000000E+00
  0.00000000E+00  0.00000000E+00  0.00000000E+00
  0.00000000E+00  0.00000000E+00  0.00000000E+00
