ortho_FA0500MA0125Cs0375                
   1.00000000000000     
    11.4299198679522593   -0.1426725968182559   -0.0351675146489991
    -0.1330145488818726    9.5647078454895809   -0.0826650284454836
    -0.0548782680124182   -0.1512723024356956   18.4462574097467709
   Pb   I    Cs   C    N    H 
     8    24     3     5     9    26
Direct
  0.1685775287406543  0.1419661638261081  0.4419415382587271
  0.1551776217916219  0.6506845874790615  0.4352587383374731
  0.8481461284727276  0.3972752369528235  0.5545566633742428
  0.8534630158799896  0.8834964310178066  0.5605227964754983
  0.3473337632222386  0.3761185859066647  0.9333831188020310
  0.3500663011740577  0.8751890515610183  0.9427562190853035
  0.6805188530874983  0.1286078721011692  0.0509630165681851
  0.6623390258964644  0.6335708866427958  0.0507830857051736
  0.1812499824705875  0.1215590846935576  0.9933026415494574
  0.1826832972973659  0.6173046920190078  0.0017217540623617
  0.8274172036232547  0.3979585064994461  0.9863854233513403
  0.8450198809330780  0.8696980486833820  0.9955788382965498
  0.3389665143923589  0.4188182595203065  0.4846448604011787
  0.3353604409142491  0.8888534434339153  0.5016150759590142
  0.6745244568170592  0.1323288954005253  0.5076341811151319
  0.6830290261661544  0.6449542610523865  0.4930904339408855
  0.3014568381040874  0.1110470095541803  0.2944774105301942
  0.2583109475687393  0.6527312177640413  0.2801496615654205
  0.7186923628631123  0.4127903568400588  0.7002912275226306
  0.7447312507400763  0.8502808599511781  0.7128160465473861
  0.2223843959914700  0.4047795614440936  0.7820588265569844
  0.2332236882693063  0.8565364358016203  0.7887830994736801
  0.8127140806738674  0.1391890438743565  0.1949516674205904
  0.7719741088081212  0.6358541223708321  0.2081359564088646
  0.0315912002570486  0.1584215496906491  0.6034819598492146
  0.0376872179295115  0.6437024027196564  0.6030987050441667
  0.9875406304933597  0.3758215783992486  0.3898646235327038
  0.9792341323098044  0.9014356702077237  0.3922832036733785
  0.4905802619826197  0.3674706599347662  0.0934049059224947
  0.4896210253851256  0.8905413212612585  0.1037398967380771
  0.5245697033734872  0.1224227581388266  0.8858650139902751
  0.5298298981162308  0.6298598333665965  0.8880962148875250
  0.4461227418477737  0.6408990562590380  0.6643108716498248
  0.0667174978803849  0.8892842763811023  0.1647045785086102
  0.9499212466593867  0.6252087948300383  0.8273423342836499
  0.5672077294350819  0.3730566262771683  0.3378245430793606
  0.9158489300302985  0.0927899454140368  0.8313914393196254
  0.4145742401154473  0.1319399936687619  0.6864669482380521
  0.0865256695674510  0.3644883160159526  0.1812696972008002
  0.6194810756325767  0.9272143522931009  0.3255985902019632
  0.6765987391138536  0.3348578807214067  0.3392104363633527
  0.5242151284497870  0.4606076184558013  0.2909420763057719
  0.0223767332285641  0.1202736665169639  0.8090439100865455
  0.8251497524055139  0.1720487049119170  0.8217503419209404
  0.5168549596058384  0.0754282328410716  0.6776436878300068
  0.3640615808659052  0.2111158487157312  0.6385430459931476
  0.1959645502103536  0.3425177185566252  0.1646575206653385
  0.0148319977305363  0.4399879004720902  0.1434880337309937
  0.5098800284649890  0.8456132428889086  0.3404355963928041
  0.5077845878317961  0.3300958073434011  0.3785841706366430
  0.7038731301661328  0.2703953141339370  0.3793658217055806
  0.7370540980531771  0.3696187670033073  0.3024796231749952
  0.5763837659940469  0.5042093368664073  0.2515122614214962
  0.4367517108633889  0.4829870902857578  0.2912848399630293
  0.9010772368974352  0.9976342835343900  0.8624433069649519
  0.0873691076732302  0.0499501676753733  0.8178407262182854
  0.0478862488100287  0.2108656336459203  0.7839391089998377
  0.8241962831991885  0.2560236398426098  0.7875738502367378
  0.7448344164393179  0.1394237593755530  0.8401825814389328
  0.3671106082895051  0.1109098459908152  0.7365810259452720
  0.5545821126929761  0.0204039101119871  0.7183399510161116
  0.5674008093187740  0.0930832519887572  0.6325123508155637
  0.4001664189259697  0.2362405771795189  0.5896508491463845
  0.2832764919543397  0.2492116065584156  0.6497058015990855
  0.0523291329888070  0.3159666518094669  0.2303860301429874
  0.2455917002183420  0.2839142415531346  0.1989197516327660
  0.2363246472603473  0.3878160145864108  0.1213462618087284
  0.0392897056106451  0.4847859131750525  0.0955592205767094
  0.9296830223855908  0.4496608458322062  0.1594886968213724
  0.4414032277374048  0.8747766624318868  0.3069229283387004
  0.4795342689380071  0.8604834823696973  0.3934059309477391
  0.5204892837801004  0.7397290230267622  0.3326804282141767
  0.6017182770501729  0.0381433028012177  0.3333107887352222
  0.6876651414147948  0.8953273539780167  0.3633924608273880
  0.6461782641939798  0.9063810354829097  0.2696319794671159
 
  0.00000000E+00  0.00000000E+00  0.00000000E+00
  0.00000000E+00  0.00000000E+00  0.00000000E+00
  0.00000000E+00  0.00000000E+00  0.00000000E+00
  0.00000000E+00  0.00000000E+00  0.00000000E+00
  0.00000000E+00  0.00000000E+00  0.00000000E+00
  0.00000000E+00  0.00000000E+00  0.00000000E+00
  0.00000000E+00  0.00000000E+00  0.00000000E+00
  0.00000000E+00  0.00000000E+00  0.00000000E+00
  0.00000000E+00  0.00000000E+00  0.00000000E+00
  0.00000000E+00  0.00000000E+00  0.00000000E+00
  0.00000000E+00  0.00000000E+00  0.00000000E+00
  0.00000000E+00  0.00000000E+00  0.00000000E+00
  0.00000000E+00  0.00000000E+00  0.00000000E+00
  0.00000000E+00  0.00000000E+00  0.00000000E+00
  0.00000000E+00  0.00000000E+00  0.00000000E+00
  0.00000000E+00  0.00000000E+00  0.00000000E+00
  0.00000000E+00  0.00000000E+00  0.00000000E+00
  0.00000000E+00  0.00000000E+00  0.00000000E+00
  0.00000000E+00  0.00000000E+00  0.00000000E+00
  0.00000000E+00  0.00000000E+00  0.00000000E+00
  0.00000000E+00  0.00000000E+00  0.00000000E+00
  0.00000000E+00  0.00000000E+00  0.00000000E+00
  0.00000000E+00  0.00000000E+00  0.00000000E+00
  0.00000000E+00  0.00000000E+00  0.00000000E+00
  0.00000000E+00  0.00000000E+00  0.00000000E+00
  0.00000000E+00  0.00000000E+00  0.00000000E+00
  0.00000000E+00  0.00000000E+00  0.00000000E+00
  0.00000000E+00  0.00000000E+00  0.00000000E+00
  0.00000000E+00  0.00000000E+00  0.00000000E+00
  0.00000000E+00  0.00000000E+00  0.00000000E+00
  0.00000000E+00  0.00000000E+00  0.00000000E+00
  0.00000000E+00  0.00000000E+00  0.00000000E+00
  0.00000000E+00  0.00000000E+00  0.00000000E+00
  0.00000000E+00  0.00000000E+00  0.00000000E+00
  0.00000000E+00  0.00000000E+00  0.00000000E+00
  0.00000000E+00  0.00000000E+00  0.00000000E+00
  0.00000000E+00  0.00000000E+00  0.00000000E+00
  0.00000000E+00  0.00000000E+00  0.00000000E+00
  0.00000000E+00  0.00000000E+00  0.00000000E+00
  0.00000000E+00  0.00000000E+00  0.00000000E+00
  0.00000000E+00  0.00000000E+00  0.00000000E+00
  0.00000000E+00  0.00000000E+00  0.00000000E+00
  0.00000000E+00  0.00000000E+00  0.00000000E+00
  0.00000000E+00  0.00000000E+00  0.00000000E+00
  0.00000000E+00  0.00000000E+00  0.00000000E+00
  0.00000000E+00  0.00000000E+00  0.00000000E+00
  0.00000000E+00  0.00000000E+00  0.00000000E+00
  0.00000000E+00  0.00000000E+00  0.00000000E+00
  0.00000000E+00  0.00000000E+00  0.00000000E+00
  0.00000000E+00  0.00000000E+00  0.00000000E+00
  0.00000000E+00  0.00000000E+00  0.00000000E+00
  0.00000000E+00  0.00000000E+00  0.00000000E+00
  0.00000000E+00  0.00000000E+00  0.00000000E+00
  0.00000000E+00  0.00000000E+00  0.00000000E+00
  0.00000000E+00  0.00000000E+00  0.00000000E+00
  0.00000000E+00  0.00000000E+00  0.00000000E+00
  0.00000000E+00  0.00000000E+00  0.00000000E+00
  0.00000000E+00  0.00000000E+00  0.00000000E+00
  0.00000000E+00  0.00000000E+00  0.00000000E+00
  0.00000000E+00  0.00000000E+00  0.00000000E+00
  0.00000000E+00  0.00000000E+00  0.00000000E+00
  0.00000000E+00  0.00000000E+00  0.00000000E+00
  0.00000000E+00  0.00000000E+00  0.00000000E+00
  0.00000000E+00  0.00000000E+00  0.00000000E+00
  0.00000000E+00  0.00000000E+00  0.00000000E+00
  0.00000000E+00  0.00000000E+00  0.00000000E+00
  0.00000000E+00  0.00000000E+00  0.00000000E+00
  0.00000000E+00  0.00000000E+00  0.00000000E+00
  0.00000000E+00  0.00000000E+00  0.00000000E+00
  0.00000000E+00  0.00000000E+00  0.00000000E+00
  0.00000000E+00  0.00000000E+00  0.00000000E+00
  0.00000000E+00  0.00000000E+00  0.00000000E+00
  0.00000000E+00  0.00000000E+00  0.00000000E+00
  0.00000000E+00  0.00000000E+00  0.00000000E+00
  0.00000000E+00  0.00000000E+00  0.00000000E+00
