ortho_FA0250MA0500Cs0250                
   1.00000000000000     
    11.3229689799612903   -0.0044393728712336    0.0356601266252993
     0.0007065449931422    9.4816121249519725   -0.1594012227795286
     0.0610150637965615   -0.2855648820378593   18.7693527271207969
   Pb   I    Cs   C    N    H 
     8    24     2     6     8    34
Direct
  0.1674934703644883  0.0935725885646830  0.4428110404670322
  0.1683976311303151  0.5868673751485515  0.4490729596428450
  0.8458085376416274  0.3509276245832050  0.5672879980453073
  0.8481316839216957  0.8530641720906545  0.5661623681738593
  0.3491041696543861  0.3815684617928991  0.9290407979859021
  0.3519088054875282  0.8793619512794977  0.9340371491505162
  0.6600115098949303  0.1345022786860397  0.0416165983274652
  0.6648783612621217  0.6381738271173515  0.0496781577783212
  0.1763082619960027  0.1341680653138665  0.9835748975380280
  0.1772788022185232  0.6347194964489747  0.9902454409318797
  0.8400339372388408  0.3826196012561682  0.9882755976542851
  0.8313527651507725  0.8869169953817373  0.9808835505692421
  0.3375112006898829  0.3471206720230215  0.5120466805206468
  0.3313949209975123  0.8452305510984230  0.5167947265741174
  0.6735874993381702  0.0908564498398550  0.5109892506018774
  0.6807109105645647  0.6007144830281094  0.4993154602019464
  0.2971637480654667  0.0692957466153047  0.3008280254542461
  0.3207365691164050  0.5897007182184454  0.3108637901972553
  0.7441693312715405  0.3706816827964203  0.7166452939631205
  0.7507014309234704  0.8653022177236334  0.7181353341979232
  0.2163664983217864  0.3701220175492827  0.7818715472753622
  0.2155214237967511  0.8754478245430494  0.7860046742244952
  0.7895560717518257  0.1265952914383573  0.1931388427564959
  0.7767495387601686  0.6363740081762619  0.1996410412829021
  0.0317000003200376  0.1082126640475274  0.6094002034599512
  0.0334654389914102  0.5977927535968633  0.6100175311238168
  0.9961735583510989  0.3403902896751040  0.3924787954811320
  0.9859672345581811  0.8376946654342003  0.3978324829153410
  0.4776482996831825  0.3905423964538160  0.0887875921853022
  0.4772421870933486  0.8899729284436810  0.0950952132932434
  0.5365816266178566  0.1273844015698486  0.8856702593906174
  0.5358299179353447  0.6278462472049060  0.8858695442210132
  0.9456568347243450  0.1269540277098451  0.8219034933745071
  0.9472870057876883  0.6227133171390939  0.8251105259516239
  0.5837883304176873  0.3675183877779687  0.3332447991006000
  0.0406067962082496  0.8616910744672267  0.1828155905855855
  0.4675216027300230  0.1437130067955943  0.6843144853294320
  0.6170000793131485  0.9228547417933299  0.3210444262035677
  0.4758802773172687  0.6503149232239606  0.6740057748988990
  0.1292255629086165  0.3749448706812447  0.1627202862214833
  0.6929212569846673  0.3426385755857311  0.3522326963076265
  0.5372268071355760  0.3261451002269831  0.2722904463726248
  0.1137725326097908  0.7837755277486262  0.2188282512588768
  0.0584815180933043  0.9025404450866957  0.1174653167926428
  0.3474125702276136  0.1066405471639364  0.6580786054438493
  0.5344398738890405  0.8597011346641931  0.3730296426273159
  0.3469646122338955  0.6227092497698371  0.6677441569032476
 -0.0011972097110278  0.3874208734785083  0.1568681764238944
  0.5267558784996599  0.4264184650835227  0.3709458909314699
  0.7228860853633871  0.3861804362073554  0.3992943912480234
  0.7512439677462511  0.2894809598803792  0.3191338422165968
  0.5862096299977253  0.2747664785254269  0.2333499990587833
  0.4517345558638233  0.3535277335699787  0.2622771102289879
  0.9586160714035431  0.8956348226967499  0.2092405418227523
  0.0964658793262606  0.7693898807453911  0.2717765992835803
  0.1959407772171318  0.7548356185078512  0.2010609360114353
  0.1285802795356351  0.8676574736540290  0.0870368156938717
 -0.0088059776684611  0.9497090794209480  0.0908686961650533
  0.3092290871295935  0.1904774193237696  0.6323272455585780
  0.2916908230846529  0.0774021829075592  0.6994472844962014
  0.3492586139676023  0.0226700232704905  0.6206447667433530
  0.4593957232775495  0.2305777049605308  0.7238283279300949
  0.5068727106986288  0.0520024463656049  0.7090787932491676
  0.5223499384952005  0.1745625221115560  0.6391630966357807
  0.4475777698206741  0.8655958334084007  0.3551750013230354
  0.5385627416775560  0.9132936915847866  0.4221502065168626
  0.5535707252002489  0.7553035526411556  0.3821529201604814
  0.5875348434758123  0.0309087786317582  0.3128174351088246
  0.7064959258216232  0.9223174668294862  0.3428574741465844
  0.6141115851107126  0.8613300366773170  0.2707365953526829
  0.3148801445653365  0.6608655690967423  0.6202623125410165
  0.3000892390161419  0.6748053882406515  0.7090488923990363
  0.3259343838748447  0.5167752376098739  0.6699078692579725
  0.4893903245284690  0.7639847509917903  0.6822165236236801
  0.5108490984692983  0.5955129719843825  0.7198076355749008
  0.5205491072119401  0.6141242423641429  0.6247803104327108
  0.9707623933780946  0.3880296108008626  0.1039473203115716
  0.9631488212820417  0.4788215840474522  0.1810018970864833
  0.9532870366203002  0.3032121736790305  0.1792542475906913
  0.1704258688870163  0.4630601764333376  0.1354918554554304
  0.1543389511501564  0.3769920864249924  0.2190042237720616
  0.1571245477034539  0.2755954466848007  0.1363256438685030
 
  0.00000000E+00  0.00000000E+00  0.00000000E+00
  0.00000000E+00  0.00000000E+00  0.00000000E+00
  0.00000000E+00  0.00000000E+00  0.00000000E+00
  0.00000000E+00  0.00000000E+00  0.00000000E+00
  0.00000000E+00  0.00000000E+00  0.00000000E+00
  0.00000000E+00  0.00000000E+00  0.00000000E+00
  0.00000000E+00  0.00000000E+00  0.00000000E+00
  0.00000000E+00  0.00000000E+00  0.00000000E+00
  0.00000000E+00  0.00000000E+00  0.00000000E+00
  0.00000000E+00  0.00000000E+00  0.00000000E+00
  0.00000000E+00  0.00000000E+00  0.00000000E+00
  0.00000000E+00  0.00000000E+00  0.00000000E+00
  0.00000000E+00  0.00000000E+00  0.00000000E+00
  0.00000000E+00  0.00000000E+00  0.00000000E+00
  0.00000000E+00  0.00000000E+00  0.00000000E+00
  0.00000000E+00  0.00000000E+00  0.00000000E+00
  0.00000000E+00  0.00000000E+00  0.00000000E+00
  0.00000000E+00  0.00000000E+00  0.00000000E+00
  0.00000000E+00  0.00000000E+00  0.00000000E+00
  0.00000000E+00  0.00000000E+00  0.00000000E+00
  0.00000000E+00  0.00000000E+00  0.00000000E+00
  0.00000000E+00  0.00000000E+00  0.00000000E+00
  0.00000000E+00  0.00000000E+00  0.00000000E+00
  0.00000000E+00  0.00000000E+00  0.00000000E+00
  0.00000000E+00  0.00000000E+00  0.00000000E+00
  0.00000000E+00  0.00000000E+00  0.00000000E+00
  0.00000000E+00  0.00000000E+00  0.00000000E+00
  0.00000000E+00  0.00000000E+00  0.00000000E+00
  0.00000000E+00  0.00000000E+00  0.00000000E+00
  0.00000000E+00  0.00000000E+00  0.00000000E+00
  0.00000000E+00  0.00000000E+00  0.00000000E+00
  0.00000000E+00  0.00000000E+00  0.00000000E+00
  0.00000000E+00  0.00000000E+00  0.00000000E+00
  0.00000000E+00  0.00000000E+00  0.00000000E+00
  0.00000000E+00  0.00000000E+00  0.00000000E+00
  0.00000000E+00  0.00000000E+00  0.00000000E+00
  0.00000000E+00  0.00000000E+00  0.00000000E+00
  0.00000000E+00  0.00000000E+00  0.00000000E+00
  0.00000000E+00  0.00000000E+00  0.00000000E+00
  0.00000000E+00  0.00000000E+00  0.00000000E+00
  0.00000000E+00  0.00000000E+00  0.00000000E+00
  0.00000000E+00  0.00000000E+00  0.00000000E+00
  0.00000000E+00  0.00000000E+00  0.00000000E+00
  0.00000000E+00  0.00000000E+00  0.00000000E+00
  0.00000000E+00  0.00000000E+00  0.00000000E+00
  0.00000000E+00  0.00000000E+00  0.00000000E+00
  0.00000000E+00  0.00000000E+00  0.00000000E+00
  0.00000000E+00  0.00000000E+00  0.00000000E+00
  0.00000000E+00  0.00000000E+00  0.00000000E+00
  0.00000000E+00  0.00000000E+00  0.00000000E+00
  0.00000000E+00  0.00000000E+00  0.00000000E+00
  0.00000000E+00  0.00000000E+00  0.00000000E+00
  0.00000000E+00  0.00000000E+00  0.00000000E+00
  0.00000000E+00  0.00000000E+00  0.00000000E+00
  0.00000000E+00  0.00000000E+00  0.00000000E+00
  0.00000000E+00  0.00000000E+00  0.00000000E+00
  0.00000000E+00  0.00000000E+00  0.00000000E+00
  0.00000000E+00  0.00000000E+00  0.00000000E+00
  0.00000000E+00  0.00000000E+00  0.00000000E+00
  0.00000000E+00  0.00000000E+00  0.00000000E+00
  0.00000000E+00  0.00000000E+00  0.00000000E+00
  0.00000000E+00  0.00000000E+00  0.00000000E+00
  0.00000000E+00  0.00000000E+00  0.00000000E+00
  0.00000000E+00  0.00000000E+00  0.00000000E+00
  0.00000000E+00  0.00000000E+00  0.00000000E+00
  0.00000000E+00  0.00000000E+00  0.00000000E+00
  0.00000000E+00  0.00000000E+00  0.00000000E+00
  0.00000000E+00  0.00000000E+00  0.00000000E+00
  0.00000000E+00  0.00000000E+00  0.00000000E+00
  0.00000000E+00  0.00000000E+00  0.00000000E+00
  0.00000000E+00  0.00000000E+00  0.00000000E+00
  0.00000000E+00  0.00000000E+00  0.00000000E+00
  0.00000000E+00  0.00000000E+00  0.00000000E+00
  0.00000000E+00  0.00000000E+00  0.00000000E+00
  0.00000000E+00  0.00000000E+00  0.00000000E+00
  0.00000000E+00  0.00000000E+00  0.00000000E+00
  0.00000000E+00  0.00000000E+00  0.00000000E+00
  0.00000000E+00  0.00000000E+00  0.00000000E+00
  0.00000000E+00  0.00000000E+00  0.00000000E+00
  0.00000000E+00  0.00000000E+00  0.00000000E+00
  0.00000000E+00  0.00000000E+00  0.00000000E+00
  0.00000000E+00  0.00000000E+00  0.00000000E+00
