ortho_FA0500MA0250Cs0250                
   1.00000000000000     
    11.5789494288493628   -0.1472971472285023    0.2896984404628306
    -0.1343229999974156    9.3890530591452155   -0.0824281848277873
     0.4956385783565632   -0.1633201292716599   18.8690235685382426
   Pb   I    Cs   C    N    H 
     8    24     2     6    10    32
Direct
  0.1552215910795128  0.1022002538097518  0.4375849610943245
  0.1638479742756850  0.5987435422000204  0.4340833575604577
  0.8540896481555715  0.3504142851788793  0.5635876303699151
  0.8474628733551318  0.8496684142842221  0.5675090903151930
  0.3486373222793825  0.3663059925449806  0.9410698440435125
  0.3478221208932037  0.8888685879687779  0.9382350125982656
  0.6702535396753935  0.1287643258186716  0.0532802321352722
  0.6598053981777751  0.6354309911916302  0.0448309332848351
  0.1666397535085642  0.1201762497676851  0.9982797939652509
  0.1846988322410869  0.6239296357707015  0.0036462361237071
  0.8300823212097513  0.3880894364722193  0.9769347032481729
  0.8395102902342522  0.8833115075642347  0.9910685260403224
  0.3351586133940588  0.3486177159133730  0.4903356795744438
  0.3336983607138374  0.8707995979944380  0.4871446231085739
  0.6903457730059792  0.0918669790514790  0.5054548188455709
  0.6742040391687325  0.5923849946989379  0.5209942337804591
  0.2831569056084268  0.0786763780317282  0.2871560549114742
  0.2763765276593694  0.6067091292319803  0.2824172843746712
  0.7510766591369104  0.3313911789335632  0.7136706530385828
  0.7259193793133252  0.8791496745649025  0.7134165675206041
  0.2325209589561451  0.3527258241950944  0.7973422067815602
  0.2340700431838104  0.8848706409742612  0.7881080898855165
  0.7836341810830365  0.1223281960892983  0.1966277453972287
  0.7706025706078785  0.6417271068945012  0.1924055907370744
  0.0396306774269808  0.1068904589351056  0.6040269487095660
  0.0415779417078115  0.6101587449508554  0.6036496092947224
  0.9812179426322594  0.3508092380225957  0.3917793516432294
  0.9856307895535876  0.8372799796344184  0.3937624507637938
  0.4816251957485908  0.3763469910828288  0.1012078675646018
  0.4746938269928567  0.8817265672593753  0.0933450102921837
  0.5366921563948279  0.1284445124490986  0.8918651173350209
  0.5259792654555966  0.6298459042346629  0.8923431812760944
  0.0578647927264713  0.8719840080802755  0.1646665440717981
  0.9503842159299700  0.1178686362355927  0.8254578717577470
  0.5843715770906966  0.8748539817852891  0.3425102900946211
  0.9357784531726102  0.6677058109481554  0.8107967487601799
  0.4119013015391917  0.6038257317723732  0.6875762102189227
  0.0600594908760215  0.3635305464921632  0.1799932845231025
  0.4637721616719247  0.1452566235827331  0.6736297521432233
  0.6178555137280792  0.3845774255378095  0.3323239609540322
  0.6949207434672473  0.8540025684667093  0.3489382160314261
  0.5301115178696891  0.8520988470207486  0.2838982424858441
  0.0267794137008662  0.6202476700860589  0.8405191949100156
  0.8286594891648437  0.6237931221495027  0.8237112556323368
  0.5117437870521357  0.5577869295569231  0.7059439369395534
  0.3870592074937398  0.6307091698135595  0.6220432312780073
  0.1629009785467589  0.3094348042412535  0.1692643981405320
  0.0041106759542308  0.4282269273625678  0.1317358527151766
  0.3509496145096174  0.0965875330131848  0.6457958026041138
  0.4924609378266567  0.3558850525630131  0.3234376837351983
  0.5338413486212762  0.9122043434087446  0.3895359404248865
  0.7318074421596967  0.8817868169179887  0.3953560186988340
  0.7468619864203633  0.8177796673943355  0.3072115029009250
  0.5719679394457727  0.8186032618742116  0.2377827077383622
  0.4433331158506583  0.8700196346058585  0.2832340508616140
  0.9501513402760720  0.7506883665031445  0.7711779113894398
  0.1063222360550790  0.6655045560517941  0.8270947582506805
  0.0220278904140107  0.5452029122857347  0.8790086079776858
  0.8064966371218250  0.5446746171215261  0.8589398968472026
  0.7659457877377175  0.6696606467815034  0.7958670997980304
  0.3448666922371165  0.6211828846473177  0.7295109753557175
  0.5249890442269116  0.5457086103512061  0.7586956116944327
  0.5801769138037834  0.5405030151811389  0.6705489289410577
  0.4465488812736579  0.6185626171816891  0.5803965193395502
  0.3063272219537621  0.6621290398767514  0.6112520648669307
  0.0180842333348940  0.3538948999525333  0.2330465202510068
  0.2023179616860115  0.2628558736849078  0.2102995469541591
  0.2078156171425594  0.3131901473674684  0.1212802040074548
  0.0383493320105395  0.4443084600364598  0.0812734535245743
  0.9230276491249315  0.4657509626284702  0.1444151215883326
  0.3038637315891804  0.1809908241951659  0.6296895995151193
  0.3012135949672440  0.0424043402867154  0.6851135571235233
  0.3609314684948629  0.0280049761198545  0.6018740300900453
  0.4458809404263926  0.2168172052009787  0.7190840218475739
  0.5097243763292868  0.0522693782737735  0.6904595444279158
  0.5151630437458206  0.1996941406484864  0.6314997516746473
  0.4520443697923990  0.4374226425335643  0.2978880616873131
  0.4473244796363872  0.3459588887306471  0.3728563314076828
  0.4753386905193892  0.2626988326376425  0.2952591678258976
  0.6281591596518368  0.4866931438918943  0.3607314874457723
  0.6514215860625403  0.2997097021768074  0.3639388344227011
  0.6632901094309461  0.3880243809860372  0.2800935604178478
 
  0.00000000E+00  0.00000000E+00  0.00000000E+00
  0.00000000E+00  0.00000000E+00  0.00000000E+00
  0.00000000E+00  0.00000000E+00  0.00000000E+00
  0.00000000E+00  0.00000000E+00  0.00000000E+00
  0.00000000E+00  0.00000000E+00  0.00000000E+00
  0.00000000E+00  0.00000000E+00  0.00000000E+00
  0.00000000E+00  0.00000000E+00  0.00000000E+00
  0.00000000E+00  0.00000000E+00  0.00000000E+00
  0.00000000E+00  0.00000000E+00  0.00000000E+00
  0.00000000E+00  0.00000000E+00  0.00000000E+00
  0.00000000E+00  0.00000000E+00  0.00000000E+00
  0.00000000E+00  0.00000000E+00  0.00000000E+00
  0.00000000E+00  0.00000000E+00  0.00000000E+00
  0.00000000E+00  0.00000000E+00  0.00000000E+00
  0.00000000E+00  0.00000000E+00  0.00000000E+00
  0.00000000E+00  0.00000000E+00  0.00000000E+00
  0.00000000E+00  0.00000000E+00  0.00000000E+00
  0.00000000E+00  0.00000000E+00  0.00000000E+00
  0.00000000E+00  0.00000000E+00  0.00000000E+00
  0.00000000E+00  0.00000000E+00  0.00000000E+00
  0.00000000E+00  0.00000000E+00  0.00000000E+00
  0.00000000E+00  0.00000000E+00  0.00000000E+00
  0.00000000E+00  0.00000000E+00  0.00000000E+00
  0.00000000E+00  0.00000000E+00  0.00000000E+00
  0.00000000E+00  0.00000000E+00  0.00000000E+00
  0.00000000E+00  0.00000000E+00  0.00000000E+00
  0.00000000E+00  0.00000000E+00  0.00000000E+00
  0.00000000E+00  0.00000000E+00  0.00000000E+00
  0.00000000E+00  0.00000000E+00  0.00000000E+00
  0.00000000E+00  0.00000000E+00  0.00000000E+00
  0.00000000E+00  0.00000000E+00  0.00000000E+00
  0.00000000E+00  0.00000000E+00  0.00000000E+00
  0.00000000E+00  0.00000000E+00  0.00000000E+00
  0.00000000E+00  0.00000000E+00  0.00000000E+00
  0.00000000E+00  0.00000000E+00  0.00000000E+00
  0.00000000E+00  0.00000000E+00  0.00000000E+00
  0.00000000E+00  0.00000000E+00  0.00000000E+00
  0.00000000E+00  0.00000000E+00  0.00000000E+00
  0.00000000E+00  0.00000000E+00  0.00000000E+00
  0.00000000E+00  0.00000000E+00  0.00000000E+00
  0.00000000E+00  0.00000000E+00  0.00000000E+00
  0.00000000E+00  0.00000000E+00  0.00000000E+00
  0.00000000E+00  0.00000000E+00  0.00000000E+00
  0.00000000E+00  0.00000000E+00  0.00000000E+00
  0.00000000E+00  0.00000000E+00  0.00000000E+00
  0.00000000E+00  0.00000000E+00  0.00000000E+00
  0.00000000E+00  0.00000000E+00  0.00000000E+00
  0.00000000E+00  0.00000000E+00  0.00000000E+00
  0.00000000E+00  0.00000000E+00  0.00000000E+00
  0.00000000E+00  0.00000000E+00  0.00000000E+00
  0.00000000E+00  0.00000000E+00  0.00000000E+00
  0.00000000E+00  0.00000000E+00  0.00000000E+00
  0.00000000E+00  0.00000000E+00  0.00000000E+00
  0.00000000E+00  0.00000000E+00  0.00000000E+00
  0.00000000E+00  0.00000000E+00  0.00000000E+00
  0.00000000E+00  0.00000000E+00  0.00000000E+00
  0.00000000E+00  0.00000000E+00  0.00000000E+00
  0.00000000E+00  0.00000000E+00  0.00000000E+00
  0.00000000E+00  0.00000000E+00  0.00000000E+00
  0.00000000E+00  0.00000000E+00  0.00000000E+00
  0.00000000E+00  0.00000000E+00  0.00000000E+00
  0.00000000E+00  0.00000000E+00  0.00000000E+00
  0.00000000E+00  0.00000000E+00  0.00000000E+00
  0.00000000E+00  0.00000000E+00  0.00000000E+00
  0.00000000E+00  0.00000000E+00  0.00000000E+00
  0.00000000E+00  0.00000000E+00  0.00000000E+00
  0.00000000E+00  0.00000000E+00  0.00000000E+00
  0.00000000E+00  0.00000000E+00  0.00000000E+00
  0.00000000E+00  0.00000000E+00  0.00000000E+00
  0.00000000E+00  0.00000000E+00  0.00000000E+00
  0.00000000E+00  0.00000000E+00  0.00000000E+00
  0.00000000E+00  0.00000000E+00  0.00000000E+00
  0.00000000E+00  0.00000000E+00  0.00000000E+00
  0.00000000E+00  0.00000000E+00  0.00000000E+00
  0.00000000E+00  0.00000000E+00  0.00000000E+00
  0.00000000E+00  0.00000000E+00  0.00000000E+00
  0.00000000E+00  0.00000000E+00  0.00000000E+00
  0.00000000E+00  0.00000000E+00  0.00000000E+00
  0.00000000E+00  0.00000000E+00  0.00000000E+00
  0.00000000E+00  0.00000000E+00  0.00000000E+00
  0.00000000E+00  0.00000000E+00  0.00000000E+00
  0.00000000E+00  0.00000000E+00  0.00000000E+00
