hexa_FA0125MA0750Cs0125                 
   1.00000000000000     
    17.8961979980033767    0.1226448799917791    0.4234613098926382
    -8.8608059761028297   14.7221976680491107   -0.0933110148313673
     0.1784018338425208    0.0601651584755203    7.7619459704524436
   Pb   I    N    C    H    Cs
     8    24     8     7    41     1
Direct
  0.5012800952894391  0.4944221027951372  0.9191942505190787
  0.5197260960869573  0.0078964864903381  0.9385908880552669
  0.0076697544665617  0.5015159353094327  0.9616460465757488
  0.9978079469657549  0.9974534170497507  0.9693382344575550
 -0.0003929554188922 -0.0008337055251791  0.4737264980898555
  0.0112974320149194  0.5036603485735606  0.4649410833337005
  0.5158561514596797  0.0039961065683256  0.4452453400928367
  0.4996117977124738  0.4937962149895476  0.4246245165065607
  0.4220480129969482  0.0800813980493595  0.2076043164302854
  0.4107908106962057  0.5709431059929702  0.1780917013830786
  0.9286403443896678  0.0975274036617356  0.2397791369607795
  0.9263295995197591  0.5909153183879731  0.2348617384527106
  0.4122612898530255  0.3205375777832817  0.1719812080313474
  0.4416502150085200  0.8289804922371320  0.1935941416025565
  0.9379326743909882  0.3317354887693390  0.2230341690685179
  0.9012719852913620  0.8245351294324378  0.2397587435872656
  0.1715648798964604  0.0836332637563647  0.2053247462226560
  0.1842947573191445  0.5891844048443317  0.1982031978573046
  0.6827920939865544  0.1113804883205335  0.1816845915471098
  0.6671698965578066  0.5844192988235374  0.1588441172442517
  0.1017123542115400  0.4228477895278710  0.7108753341558558
  0.0861048607002286  0.9142970186142387  0.7165840961143733
  0.6010951012044072  0.4203182085962589  0.6497689006584376
  0.6091532618437390  0.9255024480480544  0.6799148104730108
  0.0908963537493593  0.1742695647176479  0.7276687801500319
  0.0928872457418142  0.6781590595122419  0.7156541453661232
  0.6020281844931801  0.1790532891642160  0.6830534163018622
  0.5942693233012090  0.6723543072916076  0.6568717033017987
  0.3327365220501443  0.3976366214057436  0.6926431302320012
  0.3493919048902848  0.9048071645734372  0.7130816512149355
  0.8456742674852076  0.4109065352433624  0.7255952570440645
  0.8351428328659428  0.9126426147854635  0.7378244809568717
  0.2336213096930243  0.8204522847758939  0.1914485267023887
  0.1068453528822967  0.8270779256682997  0.1902952902508816
  0.2773825191913357  0.6504855387944647  0.6574055685821155
  0.6168234415249331  0.7879884225238235  0.2004275026635828
  0.6040694193444687  0.3119121793936840  0.2355441297409199
  0.2712600601220225  0.1340607897396271  0.6314221525514059
  0.8020521747806256  0.1386472570352187  0.5835535008523035
  0.8054144711406582  0.6413567362035985  0.5759165791358840
  0.1915500454226929  0.8645388501261378  0.1884610836337713
  0.3653367770016037  0.6650322642121151  0.6859876493825995
  0.6990650987404736  0.8777172875204839  0.1890625173334241
  0.6974769961659381  0.3533899865167903  0.1788058363030411
  0.3561772412272838  0.1612991034171500  0.7064958941505602
  0.8502252320735663  0.1694432270864935  0.7452644781988018
  0.8446857585996932  0.6602930966085943  0.7478783749686774
  0.2305113966464889  0.9386219388348156  0.1844735482294844
  0.2039631549005732  0.7509719627803634  0.1931511924136807
  0.3000536073779456  0.8555393891268726  0.1881691199884943
  0.0800621443034118  0.8672957110038145  0.1899775779424853
  0.0639945794099724  0.7582834344897244  0.1960330305628981
  0.2705326892748955  0.6621094785353425  0.5299462543338352
  0.2633124777033850  0.6926399728641740  0.7306177860542936
  0.2280466194984179  0.5835222498162773  0.6862093130737917
  0.4136882884207101  0.7369063041073374  0.6659251562754345
  0.3663048117720327  0.6440355975780500  0.8182696559423771
  0.3781808281328173  0.6238611999631222  0.5943477988470681
  0.5623404107988720  0.7953171413927884  0.1909349765667828
  0.6092540142071359  0.7549592609427948  0.3168391203604294
  0.6147591271748217  0.7451600192398964  0.1039633015460921
  0.6950453724741396  0.9213237738545416  0.2883767509854818
  0.7539084017748756  0.8679509957250888  0.2094266820201784
  0.7060141990190910  0.9076045172034272  0.0611392742348619
  0.5704544601912319  0.3327706021746794  0.1610092686007127
  0.5973423035163671  0.3299832108638120  0.3614869071294345
  0.5699940511894792  0.2414403455026618  0.2308849961802484
  0.7277844404685500  0.4271544961794251  0.1814378923832022
  0.7288813914430844  0.3309202724604360  0.2672354395882309
  0.7022110055414548  0.3314297576296824  0.0478681375961957
  0.2757347097275931  0.1404302628489770  0.4979994418485100
  0.2444393485645416  0.1720637180382435  0.6775352249673228
  0.2241449753769901  0.0662726383201482  0.6602995082036536
  0.3990695313153051  0.2346508224085588  0.6908442301297342
  0.3447136307474304  0.1425837364208094  0.8437599355200788
  0.3849938178518170  0.1257452373069011  0.6394565441009573
  0.7835443153587653  0.1829603270613414  0.5416709838597419
  0.7450568287807730  0.0754824945236361  0.6029952798326612
  0.8390643852077815  0.1318517861429802  0.4833082519404507
  0.8105439905489054  0.1810619717620820  0.8419849282073347
  0.8613916171691784  0.1161468447165257  0.7903161416197476
  0.9122358906534833  0.2320819021363832  0.7184531674501321
  0.8164154884443892  0.6999223296531071  0.5144009345164372
  0.7387043921876648  0.5959524563099553  0.5867512463200482
  0.8323095587034498  0.6130767811984008  0.4929574528343491
  0.8218800787558210  0.6989118151571839  0.8236707033477821
  0.8242157439115629  0.5955634397730246  0.8122009077181404
  0.9156310845330918  0.6992004489540438  0.7288939721394596
  0.1668700298856506  0.3299168553105590  0.1647453252268826
 
  0.00000000E+00  0.00000000E+00  0.00000000E+00
  0.00000000E+00  0.00000000E+00  0.00000000E+00
  0.00000000E+00  0.00000000E+00  0.00000000E+00
  0.00000000E+00  0.00000000E+00  0.00000000E+00
  0.00000000E+00  0.00000000E+00  0.00000000E+00
  0.00000000E+00  0.00000000E+00  0.00000000E+00
  0.00000000E+00  0.00000000E+00  0.00000000E+00
  0.00000000E+00  0.00000000E+00  0.00000000E+00
  0.00000000E+00  0.00000000E+00  0.00000000E+00
  0.00000000E+00  0.00000000E+00  0.00000000E+00
  0.00000000E+00  0.00000000E+00  0.00000000E+00
  0.00000000E+00  0.00000000E+00  0.00000000E+00
  0.00000000E+00  0.00000000E+00  0.00000000E+00
  0.00000000E+00  0.00000000E+00  0.00000000E+00
  0.00000000E+00  0.00000000E+00  0.00000000E+00
  0.00000000E+00  0.00000000E+00  0.00000000E+00
  0.00000000E+00  0.00000000E+00  0.00000000E+00
  0.00000000E+00  0.00000000E+00  0.00000000E+00
  0.00000000E+00  0.00000000E+00  0.00000000E+00
  0.00000000E+00  0.00000000E+00  0.00000000E+00
  0.00000000E+00  0.00000000E+00  0.00000000E+00
  0.00000000E+00  0.00000000E+00  0.00000000E+00
  0.00000000E+00  0.00000000E+00  0.00000000E+00
  0.00000000E+00  0.00000000E+00  0.00000000E+00
  0.00000000E+00  0.00000000E+00  0.00000000E+00
  0.00000000E+00  0.00000000E+00  0.00000000E+00
  0.00000000E+00  0.00000000E+00  0.00000000E+00
  0.00000000E+00  0.00000000E+00  0.00000000E+00
  0.00000000E+00  0.00000000E+00  0.00000000E+00
  0.00000000E+00  0.00000000E+00  0.00000000E+00
  0.00000000E+00  0.00000000E+00  0.00000000E+00
  0.00000000E+00  0.00000000E+00  0.00000000E+00
  0.00000000E+00  0.00000000E+00  0.00000000E+00
  0.00000000E+00  0.00000000E+00  0.00000000E+00
  0.00000000E+00  0.00000000E+00  0.00000000E+00
  0.00000000E+00  0.00000000E+00  0.00000000E+00
  0.00000000E+00  0.00000000E+00  0.00000000E+00
  0.00000000E+00  0.00000000E+00  0.00000000E+00
  0.00000000E+00  0.00000000E+00  0.00000000E+00
  0.00000000E+00  0.00000000E+00  0.00000000E+00
  0.00000000E+00  0.00000000E+00  0.00000000E+00
  0.00000000E+00  0.00000000E+00  0.00000000E+00
  0.00000000E+00  0.00000000E+00  0.00000000E+00
  0.00000000E+00  0.00000000E+00  0.00000000E+00
  0.00000000E+00  0.00000000E+00  0.00000000E+00
  0.00000000E+00  0.00000000E+00  0.00000000E+00
  0.00000000E+00  0.00000000E+00  0.00000000E+00
  0.00000000E+00  0.00000000E+00  0.00000000E+00
  0.00000000E+00  0.00000000E+00  0.00000000E+00
  0.00000000E+00  0.00000000E+00  0.00000000E+00
  0.00000000E+00  0.00000000E+00  0.00000000E+00
  0.00000000E+00  0.00000000E+00  0.00000000E+00
  0.00000000E+00  0.00000000E+00  0.00000000E+00
  0.00000000E+00  0.00000000E+00  0.00000000E+00
  0.00000000E+00  0.00000000E+00  0.00000000E+00
  0.00000000E+00  0.00000000E+00  0.00000000E+00
  0.00000000E+00  0.00000000E+00  0.00000000E+00
  0.00000000E+00  0.00000000E+00  0.00000000E+00
  0.00000000E+00  0.00000000E+00  0.00000000E+00
  0.00000000E+00  0.00000000E+00  0.00000000E+00
  0.00000000E+00  0.00000000E+00  0.00000000E+00
  0.00000000E+00  0.00000000E+00  0.00000000E+00
  0.00000000E+00  0.00000000E+00  0.00000000E+00
  0.00000000E+00  0.00000000E+00  0.00000000E+00
  0.00000000E+00  0.00000000E+00  0.00000000E+00
  0.00000000E+00  0.00000000E+00  0.00000000E+00
  0.00000000E+00  0.00000000E+00  0.00000000E+00
  0.00000000E+00  0.00000000E+00  0.00000000E+00
  0.00000000E+00  0.00000000E+00  0.00000000E+00
  0.00000000E+00  0.00000000E+00  0.00000000E+00
  0.00000000E+00  0.00000000E+00  0.00000000E+00
  0.00000000E+00  0.00000000E+00  0.00000000E+00
  0.00000000E+00  0.00000000E+00  0.00000000E+00
  0.00000000E+00  0.00000000E+00  0.00000000E+00
  0.00000000E+00  0.00000000E+00  0.00000000E+00
  0.00000000E+00  0.00000000E+00  0.00000000E+00
  0.00000000E+00  0.00000000E+00  0.00000000E+00
  0.00000000E+00  0.00000000E+00  0.00000000E+00
  0.00000000E+00  0.00000000E+00  0.00000000E+00
  0.00000000E+00  0.00000000E+00  0.00000000E+00
  0.00000000E+00  0.00000000E+00  0.00000000E+00
  0.00000000E+00  0.00000000E+00  0.00000000E+00
  0.00000000E+00  0.00000000E+00  0.00000000E+00
  0.00000000E+00  0.00000000E+00  0.00000000E+00
  0.00000000E+00  0.00000000E+00  0.00000000E+00
  0.00000000E+00  0.00000000E+00  0.00000000E+00
  0.00000000E+00  0.00000000E+00  0.00000000E+00
  0.00000000E+00  0.00000000E+00  0.00000000E+00
  0.00000000E+00  0.00000000E+00  0.00000000E+00
