ortho_FA0125MA0125Cs0750                
   1.00000000000000     
    11.0978665554792535   -0.0397495097939589    0.0378103594180945
    -0.0359141898050307    9.7073550822691317   -0.0790061907133728
     0.0657593102460134   -0.1460766254347205   18.3014488995214286
   Pb   I    Cs   C    N    H 
     8    24     6     2     3    11
Direct
  0.1662368996893598  0.1154577285029930  0.4489828364381111
  0.1717892209557867  0.6190418766235521  0.4390609382938654
  0.8446481495037655  0.3721141677782520  0.5532026083931517
  0.8428391627634513  0.8694431370406264  0.5568853318048403
  0.3457551664405661  0.3765582899918497  0.9362996906030163
  0.3517418264489344  0.8807740172529467  0.9348498594574088
  0.6695792096999621  0.1240216090529669  0.0606885749930692
  0.6623565696898769  0.6264132079294454  0.0544131159310801
  0.1855707385375791  0.1197277876376008  0.0012800283446400
  0.1764967070556806  0.6364359844557953 -0.0094047905920607
  0.8336186135881672  0.3760219221530295  0.9946748081056604
  0.8386853435519418  0.8727168981868756  0.9986257807254353
  0.3388442748814529  0.3710062486305294  0.5027598380587752
  0.3369538015967999  0.8693770055126496  0.5078097620086731
  0.6706759326553553  0.1180587032063978  0.4975876221245942
  0.6717924080667128  0.6185541447669981  0.4943898719903226
  0.3103679166667009  0.0878417429938373  0.3016404463920524
  0.3051389387158940  0.6251112022463470  0.2904213018554552
  0.7122783659126037  0.3849397966462145  0.7054866902610810
  0.7104993172850976  0.8577293093816198  0.7101821455234449
  0.2293914744737505  0.3801682204238497  0.7832674360772151
  0.2303884949322781  0.8682628478843619  0.7819436719164597
  0.7882635224853720  0.1223413456203263  0.2135520200707997
  0.7767387553601031  0.6326298548605173  0.2120191898323129
  0.0216990848766410  0.1242380253681704  0.6103293366534864
  0.0262847005520186  0.6235294144145397  0.6056950844974802
  0.9872592592018689  0.3627491834647115  0.3917519658683564
  0.9828238237727055  0.8665068511089260  0.3929077102596153
  0.4791790177061711  0.3743595036984889  0.1063234506788059
  0.4790004141773391  0.8772572788069092  0.1043232144602251
  0.5351934773134898  0.1335662602736513  0.8889622000262157
  0.5366948940603876  0.6193189130600423  0.8894690621240701
  0.4346361849021744  0.1229137632694786  0.6722798561724656
  0.4305236967510175  0.6207516876293555  0.6697585501849818
  0.5721315644276969  0.3702252378460369  0.3254657782578312
  0.5831864985386775  0.8676423050121730  0.3315249006175275
  0.0771159764571666  0.8843320008746499  0.1719007252777737
  0.9434030248970616  0.6258640587040770  0.8241419850296813
  0.0688726997015086  0.3799407362459466  0.1870094379047719
  0.9668877624585542  0.1312182684289903  0.8396906041452114
  0.1689602836086369  0.3091194474819334  0.1852815917445385
  0.0491613646637549  0.4903637498907023  0.1484366814309669
  0.8396287304482326  0.1300911075444929  0.8149051063391392
  0.9955065382940883  0.3442746151489628  0.2225012448617358
  0.1842517642359604  0.2334091326882994  0.2230332914614715
  0.2435643820260041  0.3393526216262313  0.1559477695507051
  0.1092371792022339  0.5261669190750631  0.1098666301646203
 -0.0350176795369067  0.5341850180606432  0.1520053877169062
  0.8243507648702540  0.1980677255538292  0.7722012810356939
  0.7803158087940463  0.1595149002426510  0.8562359446376133
  0.8106694094723782  0.0335837502420845  0.7954205214787722
 -0.0001552668281528  0.2376676377565851  0.8432314799225438
  0.9715684894040471  0.0846538640431294  0.8936617891162321
  0.0226673011120819  0.0733390218739057  0.8004733693013666
 
  0.00000000E+00  0.00000000E+00  0.00000000E+00
  0.00000000E+00  0.00000000E+00  0.00000000E+00
  0.00000000E+00  0.00000000E+00  0.00000000E+00
  0.00000000E+00  0.00000000E+00  0.00000000E+00
  0.00000000E+00  0.00000000E+00  0.00000000E+00
  0.00000000E+00  0.00000000E+00  0.00000000E+00
  0.00000000E+00  0.00000000E+00  0.00000000E+00
  0.00000000E+00  0.00000000E+00  0.00000000E+00
  0.00000000E+00  0.00000000E+00  0.00000000E+00
  0.00000000E+00  0.00000000E+00  0.00000000E+00
  0.00000000E+00  0.00000000E+00  0.00000000E+00
  0.00000000E+00  0.00000000E+00  0.00000000E+00
  0.00000000E+00  0.00000000E+00  0.00000000E+00
  0.00000000E+00  0.00000000E+00  0.00000000E+00
  0.00000000E+00  0.00000000E+00  0.00000000E+00
  0.00000000E+00  0.00000000E+00  0.00000000E+00
  0.00000000E+00  0.00000000E+00  0.00000000E+00
  0.00000000E+00  0.00000000E+00  0.00000000E+00
  0.00000000E+00  0.00000000E+00  0.00000000E+00
  0.00000000E+00  0.00000000E+00  0.00000000E+00
  0.00000000E+00  0.00000000E+00  0.00000000E+00
  0.00000000E+00  0.00000000E+00  0.00000000E+00
  0.00000000E+00  0.00000000E+00  0.00000000E+00
  0.00000000E+00  0.00000000E+00  0.00000000E+00
  0.00000000E+00  0.00000000E+00  0.00000000E+00
  0.00000000E+00  0.00000000E+00  0.00000000E+00
  0.00000000E+00  0.00000000E+00  0.00000000E+00
  0.00000000E+00  0.00000000E+00  0.00000000E+00
  0.00000000E+00  0.00000000E+00  0.00000000E+00
  0.00000000E+00  0.00000000E+00  0.00000000E+00
  0.00000000E+00  0.00000000E+00  0.00000000E+00
  0.00000000E+00  0.00000000E+00  0.00000000E+00
  0.00000000E+00  0.00000000E+00  0.00000000E+00
  0.00000000E+00  0.00000000E+00  0.00000000E+00
  0.00000000E+00  0.00000000E+00  0.00000000E+00
  0.00000000E+00  0.00000000E+00  0.00000000E+00
  0.00000000E+00  0.00000000E+00  0.00000000E+00
  0.00000000E+00  0.00000000E+00  0.00000000E+00
  0.00000000E+00  0.00000000E+00  0.00000000E+00
  0.00000000E+00  0.00000000E+00  0.00000000E+00
  0.00000000E+00  0.00000000E+00  0.00000000E+00
  0.00000000E+00  0.00000000E+00  0.00000000E+00
  0.00000000E+00  0.00000000E+00  0.00000000E+00
  0.00000000E+00  0.00000000E+00  0.00000000E+00
  0.00000000E+00  0.00000000E+00  0.00000000E+00
  0.00000000E+00  0.00000000E+00  0.00000000E+00
  0.00000000E+00  0.00000000E+00  0.00000000E+00
  0.00000000E+00  0.00000000E+00  0.00000000E+00
  0.00000000E+00  0.00000000E+00  0.00000000E+00
  0.00000000E+00  0.00000000E+00  0.00000000E+00
  0.00000000E+00  0.00000000E+00  0.00000000E+00
  0.00000000E+00  0.00000000E+00  0.00000000E+00
  0.00000000E+00  0.00000000E+00  0.00000000E+00
  0.00000000E+00  0.00000000E+00  0.00000000E+00
