hexa_FA0125MA0875Cs0000                 
   1.00000000000000     
    17.8768904724073678    0.1029323892720465    0.3877269252176382
    -8.8708160997245873   14.7530143216661980   -0.2967859291111092
     0.1643416568732410   -0.0543198659681609    7.7798832157222311
   Pb   I    N    C    H 
     8    24     9     8    47
Direct
  0.5009972028257176  0.5064276127331647  0.9408350474181338
  0.5121327599789540  0.0163896016657506  0.9537751633812654
  0.0137888899870773  0.4987554427942029  0.9243612125626706
  0.0145093783971615  0.0025743227454003  0.9373132569441054
  0.0112320354887915  0.9997307262447189  0.4363015812847562
  0.0145443161683609  0.4992950611489206  0.4200918730572878
  0.5131109335080353  0.0115046585118096  0.4554849537904944
  0.5065098121619469  0.5106805750343909  0.4402767189961984
  0.4370669222844328  0.1092711880569073  0.2331842596621104
  0.4291603535168219  0.6021699895573844  0.2045218666749104
  0.9357305263659036  0.0919939983603649  0.2022834035752504
  0.9492509472305115  0.6007506519897853  0.1820237507977176
  0.4134609471194260  0.3346021767822201  0.2010191327512973
  0.4247373097399437  0.8412459641363214  0.1907573809750725
  0.9169596265701973  0.3252340143797638  0.1610291983305757
  0.9269990479811572  0.8256305676399170  0.1816328511872250
  0.1802433033044841  0.0778523758275414  0.1823253652948236
  0.1837091016420198  0.5700224318956127  0.1553411341893156
  0.6799740462271726  0.0872483937870511  0.1967003718067400
  0.6702004549661994  0.5835693388042253  0.1712331314205773
  0.0886208084018228  0.4018808882604089  0.6557308407762902
  0.1008998405504355  0.9152020696502176  0.6738912624189212
  0.5927953430461158  0.4253179833824701  0.6747924377705881
  0.6013240980344109  0.9321099209049201  0.7031749750002141
  0.1125889699601993  0.1728035105928152  0.6858826380475465
  0.1214410472731539  0.6738907171069358  0.6733672306018744
  0.6042954222211995  0.1905159062350422  0.6992888025321621
  0.5887000471574221  0.6843478158927865  0.7080441387199512
  0.3360739305940905  0.4284935473657541  0.6895790524065121
  0.3456141449068831  0.9350925405769168  0.7171470521733579
  0.8496828985522602  0.4259602466710055  0.6759265065332586
  0.8452688639182302  0.9209929942556152  0.7054401496250516
  0.7896028247558988  0.6861017688088623  0.6866976276589118
  0.9157606522513035  0.6778226886461118  0.6835803108538093
  0.3089002565093951  0.1429524921687765  0.5826722981569673
  0.6168712400188291  0.3406372940921048  0.2503830274292021
  0.2880178645606790  0.6133619766004093  0.7206436674784527
  0.7838398041232344  0.1575874664873134  0.7602426681882042
  0.1129116315062583  0.3187107242356549  0.2391087884902579
  0.6190492553623659  0.8158221064021711  0.1113419704776589
  0.1295094645054775  0.8297257808211423  0.0844074408646062
  0.8307122140766121  0.6413170743289285  0.6870885674792534
  0.3511723189547800  0.1756741450535186  0.7522272543109280
  0.7037671097214852  0.3600188638857406  0.1824400200422841
  0.3689268868135907  0.7018297653416601  0.6889216194680368
  0.8590602279010260  0.1676084832705690  0.6525402661869251
  0.1975369435574877  0.3412131536181164  0.1538595319551369
  0.6955226915914431  0.8545178742136568  0.2244618692002077
  0.1970871746741024  0.8502414606121286  0.2125922857930574
  0.7913854226787581  0.5674617336064144  0.6902381909447607
  0.8199399750060331  0.7555059290063273  0.6866044226349761
  0.7229293282789850  0.6521813221487310  0.6915828105812476
  0.9415380854651191  0.6368074935380201  0.6825847172284134
  0.9587999790690757  0.7462361497606428  0.6785921774780341
  0.3110249195101614  0.1943783416551219  0.5137633738541613
  0.2438337966080129  0.0931393215735375  0.5983139205243763
  0.3393975731556937  0.1160918744252638  0.5052239873229647
  0.3192161937581958  0.2069495953458068  0.8245977343369143
  0.3434746358812568  0.1175165884534252  0.8213638767497279
  0.4203896583468997  0.2249650223202539  0.7296322824918379
  0.5930800920402045  0.3739711055359530  0.1828644644401878
  0.6185447524680623  0.3617770067163392  0.3781483961974065
  0.5700709217018262  0.2717853039786430  0.2447025605547213
  0.7489104059670326  0.4332704883440325  0.1862081016789318
  0.7271329444651039  0.3259734231235119  0.2622592549800010
  0.6973817761699430  0.3346847314811622  0.0494302388574841
  0.2336540329572948  0.6137590184311239  0.6789552873407824
  0.2759877572513497  0.5988000271960175  0.8510556035662261
  0.2907607000997789  0.5597415079512029  0.6616996316229818
  0.3671499738036406  0.7531976958055091  0.7733615333162964
  0.4253445578582148  0.6956486399084382  0.7159257281689969
  0.3718141427906987  0.7198642670743677  0.5539052786152155
  0.7535582611313681  0.1893825431143376  0.7090610019392926
  0.8013763553628002  0.1833646814647747  0.8836625570941928
  0.7350792123994602  0.0895403946883682  0.7702607005605356
  0.9056843484971056  0.2395544647319220  0.6329272056225835
  0.8898850674928325  0.1365754945217930  0.7190500646400825
  0.8350626639739324  0.1329711118062968  0.5288583392651043
  0.0803788579384489  0.3438248107517641  0.1741230683866133
  0.1199848894185007  0.3450736480618838  0.3639191404336649
  0.0699080043584177  0.2489375642485580  0.2456422053212026
  0.2368018065299785  0.4146162168163917  0.1375224966928250
  0.2313109596359395  0.3185504329786714  0.2344591284076465
  0.1851736420051861  0.3067563313335969  0.0281437527848197
  0.5943363548374477  0.8584351008409458  0.1023499273275952
  0.5673949083960795  0.7543314054193312  0.1572438551697729
  0.6336125201033448  0.8021944952363950  0.9873666499089334
  0.6760131196889319  0.8682475981182999  0.3520907260080153
  0.7170637202404659  0.8055467245170147  0.2336051760391068
  0.7478928580957257  0.9175659132593282  0.1689446412817651
  0.1519605727814878  0.8776810972991429  0.9886747812173388
  0.0739179964276754  0.8272456616948364  0.1400765780131122
  0.1085153983835007  0.7675465324166116  0.0249941419142085
  0.2133880429069290  0.9140635794692215  0.2781628180318038
  0.1708171711494494  0.7951711372456290  0.3052521291271936
  0.2548969906420671  0.8562091925975989  0.1453612282004348
 
  0.00000000E+00  0.00000000E+00  0.00000000E+00
  0.00000000E+00  0.00000000E+00  0.00000000E+00
  0.00000000E+00  0.00000000E+00  0.00000000E+00
  0.00000000E+00  0.00000000E+00  0.00000000E+00
  0.00000000E+00  0.00000000E+00  0.00000000E+00
  0.00000000E+00  0.00000000E+00  0.00000000E+00
  0.00000000E+00  0.00000000E+00  0.00000000E+00
  0.00000000E+00  0.00000000E+00  0.00000000E+00
  0.00000000E+00  0.00000000E+00  0.00000000E+00
  0.00000000E+00  0.00000000E+00  0.00000000E+00
  0.00000000E+00  0.00000000E+00  0.00000000E+00
  0.00000000E+00  0.00000000E+00  0.00000000E+00
  0.00000000E+00  0.00000000E+00  0.00000000E+00
  0.00000000E+00  0.00000000E+00  0.00000000E+00
  0.00000000E+00  0.00000000E+00  0.00000000E+00
  0.00000000E+00  0.00000000E+00  0.00000000E+00
  0.00000000E+00  0.00000000E+00  0.00000000E+00
  0.00000000E+00  0.00000000E+00  0.00000000E+00
  0.00000000E+00  0.00000000E+00  0.00000000E+00
  0.00000000E+00  0.00000000E+00  0.00000000E+00
  0.00000000E+00  0.00000000E+00  0.00000000E+00
  0.00000000E+00  0.00000000E+00  0.00000000E+00
  0.00000000E+00  0.00000000E+00  0.00000000E+00
  0.00000000E+00  0.00000000E+00  0.00000000E+00
  0.00000000E+00  0.00000000E+00  0.00000000E+00
  0.00000000E+00  0.00000000E+00  0.00000000E+00
  0.00000000E+00  0.00000000E+00  0.00000000E+00
  0.00000000E+00  0.00000000E+00  0.00000000E+00
  0.00000000E+00  0.00000000E+00  0.00000000E+00
  0.00000000E+00  0.00000000E+00  0.00000000E+00
  0.00000000E+00  0.00000000E+00  0.00000000E+00
  0.00000000E+00  0.00000000E+00  0.00000000E+00
  0.00000000E+00  0.00000000E+00  0.00000000E+00
  0.00000000E+00  0.00000000E+00  0.00000000E+00
  0.00000000E+00  0.00000000E+00  0.00000000E+00
  0.00000000E+00  0.00000000E+00  0.00000000E+00
  0.00000000E+00  0.00000000E+00  0.00000000E+00
  0.00000000E+00  0.00000000E+00  0.00000000E+00
  0.00000000E+00  0.00000000E+00  0.00000000E+00
  0.00000000E+00  0.00000000E+00  0.00000000E+00
  0.00000000E+00  0.00000000E+00  0.00000000E+00
  0.00000000E+00  0.00000000E+00  0.00000000E+00
  0.00000000E+00  0.00000000E+00  0.00000000E+00
  0.00000000E+00  0.00000000E+00  0.00000000E+00
  0.00000000E+00  0.00000000E+00  0.00000000E+00
  0.00000000E+00  0.00000000E+00  0.00000000E+00
  0.00000000E+00  0.00000000E+00  0.00000000E+00
  0.00000000E+00  0.00000000E+00  0.00000000E+00
  0.00000000E+00  0.00000000E+00  0.00000000E+00
  0.00000000E+00  0.00000000E+00  0.00000000E+00
  0.00000000E+00  0.00000000E+00  0.00000000E+00
  0.00000000E+00  0.00000000E+00  0.00000000E+00
  0.00000000E+00  0.00000000E+00  0.00000000E+00
  0.00000000E+00  0.00000000E+00  0.00000000E+00
  0.00000000E+00  0.00000000E+00  0.00000000E+00
  0.00000000E+00  0.00000000E+00  0.00000000E+00
  0.00000000E+00  0.00000000E+00  0.00000000E+00
  0.00000000E+00  0.00000000E+00  0.00000000E+00
  0.00000000E+00  0.00000000E+00  0.00000000E+00
  0.00000000E+00  0.00000000E+00  0.00000000E+00
  0.00000000E+00  0.00000000E+00  0.00000000E+00
  0.00000000E+00  0.00000000E+00  0.00000000E+00
  0.00000000E+00  0.00000000E+00  0.00000000E+00
  0.00000000E+00  0.00000000E+00  0.00000000E+00
  0.00000000E+00  0.00000000E+00  0.00000000E+00
  0.00000000E+00  0.00000000E+00  0.00000000E+00
  0.00000000E+00  0.00000000E+00  0.00000000E+00
  0.00000000E+00  0.00000000E+00  0.00000000E+00
  0.00000000E+00  0.00000000E+00  0.00000000E+00
  0.00000000E+00  0.00000000E+00  0.00000000E+00
  0.00000000E+00  0.00000000E+00  0.00000000E+00
  0.00000000E+00  0.00000000E+00  0.00000000E+00
  0.00000000E+00  0.00000000E+00  0.00000000E+00
  0.00000000E+00  0.00000000E+00  0.00000000E+00
  0.00000000E+00  0.00000000E+00  0.00000000E+00
  0.00000000E+00  0.00000000E+00  0.00000000E+00
  0.00000000E+00  0.00000000E+00  0.00000000E+00
  0.00000000E+00  0.00000000E+00  0.00000000E+00
  0.00000000E+00  0.00000000E+00  0.00000000E+00
  0.00000000E+00  0.00000000E+00  0.00000000E+00
  0.00000000E+00  0.00000000E+00  0.00000000E+00
  0.00000000E+00  0.00000000E+00  0.00000000E+00
  0.00000000E+00  0.00000000E+00  0.00000000E+00
  0.00000000E+00  0.00000000E+00  0.00000000E+00
  0.00000000E+00  0.00000000E+00  0.00000000E+00
  0.00000000E+00  0.00000000E+00  0.00000000E+00
  0.00000000E+00  0.00000000E+00  0.00000000E+00
  0.00000000E+00  0.00000000E+00  0.00000000E+00
  0.00000000E+00  0.00000000E+00  0.00000000E+00
  0.00000000E+00  0.00000000E+00  0.00000000E+00
  0.00000000E+00  0.00000000E+00  0.00000000E+00
  0.00000000E+00  0.00000000E+00  0.00000000E+00
  0.00000000E+00  0.00000000E+00  0.00000000E+00
  0.00000000E+00  0.00000000E+00  0.00000000E+00
  0.00000000E+00  0.00000000E+00  0.00000000E+00
  0.00000000E+00  0.00000000E+00  0.00000000E+00
