hexa_FA0125MA0625Cs0250                 
   1.00000000000000     
    17.8543037730924929    0.1364992401495035    0.6788126763777013
    -8.8244531844476661   14.7154159374510343   -0.2320068683680837
     0.2905586759757642    0.0554762690126205    7.8213979331175185
   Pb   I    N    C    H    Cs
     8    24     7     6    35     2
Direct
  0.5072464222293902  0.5025659530215787  0.9323083940058503
  0.5007064317367645  0.9980277553224537  0.9572392016617399
  0.0029749224865353  0.4972865886767129  0.9621587518730478
  0.0029480002616391  0.9960635301229813  0.9347100843343001
  0.0071257104928239  0.9963019717407741  0.4385873800807077
  0.9986761210524939  0.4959328659071136  0.4637265708763926
  0.5017016611951777  0.0026622179265194  0.4603115476980891
  0.5063497267098169  0.5012869532358937  0.4379384053944859
  0.4190507602769918  0.0882697150938738  0.2201733520216291
  0.4231084043334040  0.5899194896488044  0.2135670707621704
  0.9142951694848890  0.0729367866879690  0.2149549779981638
  0.8890554412602072  0.5515370646000510  0.2386137124753085
  0.4255198679641529  0.3294357464724660  0.1880512799523959
  0.4011627422901962  0.8267236814495291  0.2326404763103503
  0.9269802454717729  0.3185366956588834  0.2201336564348964
  0.9387380421982863  0.8243394287009670  0.1882719615506384
  0.1783402256950148  0.0969125254349550  0.1530190238307484
  0.1666642171542842  0.5919151456109625  0.1984323979210231
  0.6708619670833158  0.0884806773214459  0.1894276718361655
  0.6753642870128991  0.5835895838968082  0.1658886615793099
  0.0976958376263823  0.4229565174876189  0.6916001127318897
  0.0995143510048247  0.9201040503566731  0.6780321931338141
  0.6012695952097600  0.4238007744001363  0.6684697319180242
  0.5899326783563718  0.9194738395528894  0.6844800387487476
  0.0836767234401556  0.1734531681281197  0.6804740183698778
  0.0832187817939922  0.6684375219733781  0.7146487437324393
  0.5906099553673926  0.1742716306928205  0.7165130154607876
  0.6002488905887107  0.6755991595876996  0.6785361221755631
  0.3396758824826318  0.4076120710488393  0.7077811757774178
  0.3331288731875445  0.9096896138793936  0.7354433612386085
  0.8332383809288461  0.3956524776706756  0.7460972711819179
  0.8414088200883141  0.9063924097975440  0.7004585172880206
  0.7264001589803716  0.8180508920424284  0.1891200280262925
  0.5999886254870791  0.8257014737383558  0.1855272214574182
  0.1804955852943853  0.8803687146309627  0.0873234618842761
  0.3013730310004844  0.6369988785902132  0.5856333939996020
  0.8003367082701972  0.6371898793045260  0.5803123790037356
  0.1118466173709652  0.2950627441358813  0.2475516920471312
  0.2774342306946622  0.1497305774666810  0.6794616855948729
  0.6845377885961842  0.8627570525850160  0.1897068613940439
  0.1795873422345635  0.8419127787546521  0.2567025334820590
  0.3489250240755543  0.6640470859054837  0.7456059009354732
  0.8400807913750009  0.6517208987855533  0.7476808870925036
  0.1957467043653280  0.3659565258589411  0.1611005259693657
  0.3686638767384860  0.1694984628181985  0.6883087233976727
  0.7232949244516350  0.9366431087287850  0.1937286491127136
  0.6963645132788222  0.7486671646172522  0.1839186975144842
  0.7926037213812130  0.8526872880353155  0.1919482429182083
  0.5725573391043062  0.8655098171218035  0.1907281204763864
  0.5573377387535647  0.7568615468879959  0.1859882284365572
  0.1816402971613634  0.9416343523169732  0.1012572064234841
  0.1259539433419896  0.8373586744148807  0.0233964911610797
  0.2345867557124749  0.8924084711772453  0.0058950866113566
  0.1207868968441620  0.8295599807403858  0.3337816284766413
  0.1797193854738968  0.7785476256444270  0.2363780913865544
  0.2379204370789814  0.8910877366601383  0.3193215564336640
  0.3095754993361987  0.6924278179446730  0.5185548912963660
  0.2349045061557817  0.5924200983962267  0.6125130952207574
  0.3240377344087987  0.6042879066464460  0.5019398619262065
  0.3300159489565162  0.7069462336434407  0.8204670970855724
  0.3309737689931489  0.6026004959556402  0.8183869559185527
  0.4191474385610556  0.7013217883722522  0.7105865403758301
  0.8018708813763483  0.6945137806516440  0.5382788009628681
  0.7352268252107673  0.5847821807251815  0.5917961890020758
  0.8319236186550416  0.6183544583444406  0.4847041879793361
  0.8092479274251787  0.6785045916176253  0.8382398981608472
  0.8279258770074887  0.5863586210371344  0.7944152775541691
  0.9102952145827252  0.6992399735036865  0.7294514707600761
  0.0606707325645202  0.3075145574599927  0.2324497072736552
  0.1158712619613538  0.2909787109419975  0.3781405604099280
  0.0919899892371990  0.2311843318528317  0.1993227804666413
  0.2103511330279198  0.4320798055239473  0.2109816537792088
  0.2475290565867138  0.3523544995228766  0.1865370640688030
  0.1884617044645038  0.3641438247602863  0.0230861319648867
  0.2702507135261624  0.1779678007666465  0.5715319235305081
  0.2578997077123546  0.1752046130434817  0.7835772677228223
  0.2322356130936936  0.0800054093415258  0.6775721647330772
  0.4125684296969362  0.2429806541496246  0.6854516502034181
  0.3730333637901254  0.1404003860740806  0.8073868808735595
  0.3846060603304814  0.1387815107318878  0.5776521180770753
  0.8094581161358702  0.1560944663952580  0.6677833821348447
  0.6472985783461526  0.3248700297175441  0.1605957599867448
 
  0.00000000E+00  0.00000000E+00  0.00000000E+00
  0.00000000E+00  0.00000000E+00  0.00000000E+00
  0.00000000E+00  0.00000000E+00  0.00000000E+00
  0.00000000E+00  0.00000000E+00  0.00000000E+00
  0.00000000E+00  0.00000000E+00  0.00000000E+00
  0.00000000E+00  0.00000000E+00  0.00000000E+00
  0.00000000E+00  0.00000000E+00  0.00000000E+00
  0.00000000E+00  0.00000000E+00  0.00000000E+00
  0.00000000E+00  0.00000000E+00  0.00000000E+00
  0.00000000E+00  0.00000000E+00  0.00000000E+00
  0.00000000E+00  0.00000000E+00  0.00000000E+00
  0.00000000E+00  0.00000000E+00  0.00000000E+00
  0.00000000E+00  0.00000000E+00  0.00000000E+00
  0.00000000E+00  0.00000000E+00  0.00000000E+00
  0.00000000E+00  0.00000000E+00  0.00000000E+00
  0.00000000E+00  0.00000000E+00  0.00000000E+00
  0.00000000E+00  0.00000000E+00  0.00000000E+00
  0.00000000E+00  0.00000000E+00  0.00000000E+00
  0.00000000E+00  0.00000000E+00  0.00000000E+00
  0.00000000E+00  0.00000000E+00  0.00000000E+00
  0.00000000E+00  0.00000000E+00  0.00000000E+00
  0.00000000E+00  0.00000000E+00  0.00000000E+00
  0.00000000E+00  0.00000000E+00  0.00000000E+00
  0.00000000E+00  0.00000000E+00  0.00000000E+00
  0.00000000E+00  0.00000000E+00  0.00000000E+00
  0.00000000E+00  0.00000000E+00  0.00000000E+00
  0.00000000E+00  0.00000000E+00  0.00000000E+00
  0.00000000E+00  0.00000000E+00  0.00000000E+00
  0.00000000E+00  0.00000000E+00  0.00000000E+00
  0.00000000E+00  0.00000000E+00  0.00000000E+00
  0.00000000E+00  0.00000000E+00  0.00000000E+00
  0.00000000E+00  0.00000000E+00  0.00000000E+00
  0.00000000E+00  0.00000000E+00  0.00000000E+00
  0.00000000E+00  0.00000000E+00  0.00000000E+00
  0.00000000E+00  0.00000000E+00  0.00000000E+00
  0.00000000E+00  0.00000000E+00  0.00000000E+00
  0.00000000E+00  0.00000000E+00  0.00000000E+00
  0.00000000E+00  0.00000000E+00  0.00000000E+00
  0.00000000E+00  0.00000000E+00  0.00000000E+00
  0.00000000E+00  0.00000000E+00  0.00000000E+00
  0.00000000E+00  0.00000000E+00  0.00000000E+00
  0.00000000E+00  0.00000000E+00  0.00000000E+00
  0.00000000E+00  0.00000000E+00  0.00000000E+00
  0.00000000E+00  0.00000000E+00  0.00000000E+00
  0.00000000E+00  0.00000000E+00  0.00000000E+00
  0.00000000E+00  0.00000000E+00  0.00000000E+00
  0.00000000E+00  0.00000000E+00  0.00000000E+00
  0.00000000E+00  0.00000000E+00  0.00000000E+00
  0.00000000E+00  0.00000000E+00  0.00000000E+00
  0.00000000E+00  0.00000000E+00  0.00000000E+00
  0.00000000E+00  0.00000000E+00  0.00000000E+00
  0.00000000E+00  0.00000000E+00  0.00000000E+00
  0.00000000E+00  0.00000000E+00  0.00000000E+00
  0.00000000E+00  0.00000000E+00  0.00000000E+00
  0.00000000E+00  0.00000000E+00  0.00000000E+00
  0.00000000E+00  0.00000000E+00  0.00000000E+00
  0.00000000E+00  0.00000000E+00  0.00000000E+00
  0.00000000E+00  0.00000000E+00  0.00000000E+00
  0.00000000E+00  0.00000000E+00  0.00000000E+00
  0.00000000E+00  0.00000000E+00  0.00000000E+00
  0.00000000E+00  0.00000000E+00  0.00000000E+00
  0.00000000E+00  0.00000000E+00  0.00000000E+00
  0.00000000E+00  0.00000000E+00  0.00000000E+00
  0.00000000E+00  0.00000000E+00  0.00000000E+00
  0.00000000E+00  0.00000000E+00  0.00000000E+00
  0.00000000E+00  0.00000000E+00  0.00000000E+00
  0.00000000E+00  0.00000000E+00  0.00000000E+00
  0.00000000E+00  0.00000000E+00  0.00000000E+00
  0.00000000E+00  0.00000000E+00  0.00000000E+00
  0.00000000E+00  0.00000000E+00  0.00000000E+00
  0.00000000E+00  0.00000000E+00  0.00000000E+00
  0.00000000E+00  0.00000000E+00  0.00000000E+00
  0.00000000E+00  0.00000000E+00  0.00000000E+00
  0.00000000E+00  0.00000000E+00  0.00000000E+00
  0.00000000E+00  0.00000000E+00  0.00000000E+00
  0.00000000E+00  0.00000000E+00  0.00000000E+00
  0.00000000E+00  0.00000000E+00  0.00000000E+00
  0.00000000E+00  0.00000000E+00  0.00000000E+00
  0.00000000E+00  0.00000000E+00  0.00000000E+00
  0.00000000E+00  0.00000000E+00  0.00000000E+00
  0.00000000E+00  0.00000000E+00  0.00000000E+00
  0.00000000E+00  0.00000000E+00  0.00000000E+00
