hexa_FA0375MA0125Cs0500                 
   1.00000000000000     
    18.6026518444550213    0.0555612323355835   -0.1045813279148249
    -9.2609535182808678   14.5840030947554951    0.1467410015544135
    -0.0439684385870151    0.0502941140537518    7.7744892723493928
   Pb   I    N    C    H    Cs
     8    24     7     4    21     4
Direct
  0.4999188866327977  0.5012443012258382  0.9480096003743215
  0.5109521734016974  0.0011093888930968  0.9389012424511129
  0.0105838368485089  0.5063435500187654  0.9410261742386414
  0.9930079498106127  0.9966539524125071  0.9396801212106238
  0.9930347681519477  0.9966543511100304  0.4373287964352143
  0.0102800066998385  0.5061053918809256  0.4401328803716293
  0.5113416922592586  0.0022202745252579  0.4364191184646029
  0.5002530152067722  0.5014862137004191  0.4469474059992108
  0.4324422596678091  0.0891721367638484  0.1817873311630367
  0.4230078932506277  0.5863774290022836  0.1977097372680368
  0.9195990359227817  0.0877921247792213  0.1834823307630190
  0.9346140577994979  0.5968102227439768  0.1858647387292095
  0.4131255007339331  0.3239196786667490  0.2046898234686357
  0.4265722158519035  0.8242865095433215  0.1935758855430405
  0.9284579362257409  0.3308602834121503  0.1945795681044043
  0.8960648232363881  0.8205935184519431  0.1922921514347352
  0.1569616517908935  0.0814435811830233  0.1892380058693421
  0.1771544884645055  0.5861869591300088  0.1929418083210469
  0.6738151467110900  0.0860533204984985  0.1882814842037071
  0.6639568590499901  0.5841363937617990  0.1994395271083652
  0.0922275435614013  0.4209639206582101  0.6960633112073606
  0.0680764901528551  0.9067128691521165  0.6930218172534829
  0.5864788129142132  0.4163457904551589  0.7132739579042838
  0.5864859737480718  0.9125796550283354  0.6921960043082743
  0.0880686161119174  0.1760003996046017  0.6841580820777494
  0.1028033668995621  0.6816556928501444  0.6862247081682384
  0.5914900831795616  0.1793511626454196  0.6854865287690842
  0.5908342705991083  0.6767183220252341  0.6943460999084253
  0.3346089026984682  0.4187353060740824  0.6963266849663333
  0.3463659539780569  0.9163414683903035  0.6861321987426714
  0.8464087715709095  0.4267417264557358  0.6910109806801039
  0.8286789813181277  0.9133814119691159  0.6872759871657967
  0.2268161495752525  0.8239795702138148  0.1866385311740212
  0.1074496494938048  0.8353038444655387  0.1879284564878768
  0.2763781033634234  0.1770795831539806  0.6874478079357857
  0.7791803047037219  0.1825360169259418  0.6877240734266298
  0.4007520042561817  0.1758901340277672  0.6860608480842664
  0.9033617395040340  0.1812782721085703  0.6863243042463907
  0.6115741006193086  0.3270987073518590  0.1536571859211330
  0.1898266395830447  0.8708580694132920  0.1871156046518888
  0.3176892757223808  0.1348768142303289  0.6862903507212574
  0.8203225072626771  0.1403077630597588  0.6864851539747062
  0.7018677071799932  0.3605100341641720  0.1973798017439257
  0.2309280893661087  0.9455729828024475  0.1867788118587895
  0.2802703818275415  0.0600093495188734  0.6854966143281214
  0.7827760655470118  0.0653822914253280  0.6855828792931008
  0.1943914986868068  0.7537363636672558  0.1873122790230921
  0.2916145291845897  0.8572690455894029  0.1864837791629078
  0.0852417454018653  0.8780400199441016  0.1880362985846283
  0.0632141798671196  0.7657896235725042  0.1878745136474313
  0.3056827285715048  0.2471320455568511  0.6880926294678561
  0.8086115350305263  0.2526102763342538  0.6884951899991273
  0.2113898877212378  0.1404805761434843  0.6872380835101038
  0.7142100301816947  0.1460196678592743  0.6876401420447845
  0.4283215780719846  0.1381349273633543  0.6854275278755587
  0.9309743636793530  0.1436306236099637  0.6855254549225709
  0.4415413922615928  0.2457761393742598  0.6877136302523332
  0.9441648292699757  0.2511229929558570  0.6875219580917939
  0.6064320756798394  0.3514020029577953  0.0335734708379879
  0.5841105024176634  0.3488249701284289  0.2401169602483579
  0.5725682879078486  0.2557050448667603  0.1519628908524935
  0.7366206223073537  0.4348896110707151  0.2124073379720492
  0.7037655243117644  0.3276043103612588  0.3174914289587145
  0.7295342216510995  0.3431080767509804  0.0927729272120399
  0.1524730012017915  0.3293277405016565  0.1859366753515253
  0.8378751200711836  0.6705730052187856  0.6875332580156636
  0.6742049209404452  0.8466368748100139  0.1863811135055167
  0.3281492151503903  0.6732574302260709  0.6811020724064648
 
  0.00000000E+00  0.00000000E+00  0.00000000E+00
  0.00000000E+00  0.00000000E+00  0.00000000E+00
  0.00000000E+00  0.00000000E+00  0.00000000E+00
  0.00000000E+00  0.00000000E+00  0.00000000E+00
  0.00000000E+00  0.00000000E+00  0.00000000E+00
  0.00000000E+00  0.00000000E+00  0.00000000E+00
  0.00000000E+00  0.00000000E+00  0.00000000E+00
  0.00000000E+00  0.00000000E+00  0.00000000E+00
  0.00000000E+00  0.00000000E+00  0.00000000E+00
  0.00000000E+00  0.00000000E+00  0.00000000E+00
  0.00000000E+00  0.00000000E+00  0.00000000E+00
  0.00000000E+00  0.00000000E+00  0.00000000E+00
  0.00000000E+00  0.00000000E+00  0.00000000E+00
  0.00000000E+00  0.00000000E+00  0.00000000E+00
  0.00000000E+00  0.00000000E+00  0.00000000E+00
  0.00000000E+00  0.00000000E+00  0.00000000E+00
  0.00000000E+00  0.00000000E+00  0.00000000E+00
  0.00000000E+00  0.00000000E+00  0.00000000E+00
  0.00000000E+00  0.00000000E+00  0.00000000E+00
  0.00000000E+00  0.00000000E+00  0.00000000E+00
  0.00000000E+00  0.00000000E+00  0.00000000E+00
  0.00000000E+00  0.00000000E+00  0.00000000E+00
  0.00000000E+00  0.00000000E+00  0.00000000E+00
  0.00000000E+00  0.00000000E+00  0.00000000E+00
  0.00000000E+00  0.00000000E+00  0.00000000E+00
  0.00000000E+00  0.00000000E+00  0.00000000E+00
  0.00000000E+00  0.00000000E+00  0.00000000E+00
  0.00000000E+00  0.00000000E+00  0.00000000E+00
  0.00000000E+00  0.00000000E+00  0.00000000E+00
  0.00000000E+00  0.00000000E+00  0.00000000E+00
  0.00000000E+00  0.00000000E+00  0.00000000E+00
  0.00000000E+00  0.00000000E+00  0.00000000E+00
  0.00000000E+00  0.00000000E+00  0.00000000E+00
  0.00000000E+00  0.00000000E+00  0.00000000E+00
  0.00000000E+00  0.00000000E+00  0.00000000E+00
  0.00000000E+00  0.00000000E+00  0.00000000E+00
  0.00000000E+00  0.00000000E+00  0.00000000E+00
  0.00000000E+00  0.00000000E+00  0.00000000E+00
  0.00000000E+00  0.00000000E+00  0.00000000E+00
  0.00000000E+00  0.00000000E+00  0.00000000E+00
  0.00000000E+00  0.00000000E+00  0.00000000E+00
  0.00000000E+00  0.00000000E+00  0.00000000E+00
  0.00000000E+00  0.00000000E+00  0.00000000E+00
  0.00000000E+00  0.00000000E+00  0.00000000E+00
  0.00000000E+00  0.00000000E+00  0.00000000E+00
  0.00000000E+00  0.00000000E+00  0.00000000E+00
  0.00000000E+00  0.00000000E+00  0.00000000E+00
  0.00000000E+00  0.00000000E+00  0.00000000E+00
  0.00000000E+00  0.00000000E+00  0.00000000E+00
  0.00000000E+00  0.00000000E+00  0.00000000E+00
  0.00000000E+00  0.00000000E+00  0.00000000E+00
  0.00000000E+00  0.00000000E+00  0.00000000E+00
  0.00000000E+00  0.00000000E+00  0.00000000E+00
  0.00000000E+00  0.00000000E+00  0.00000000E+00
  0.00000000E+00  0.00000000E+00  0.00000000E+00
  0.00000000E+00  0.00000000E+00  0.00000000E+00
  0.00000000E+00  0.00000000E+00  0.00000000E+00
  0.00000000E+00  0.00000000E+00  0.00000000E+00
  0.00000000E+00  0.00000000E+00  0.00000000E+00
  0.00000000E+00  0.00000000E+00  0.00000000E+00
  0.00000000E+00  0.00000000E+00  0.00000000E+00
  0.00000000E+00  0.00000000E+00  0.00000000E+00
  0.00000000E+00  0.00000000E+00  0.00000000E+00
  0.00000000E+00  0.00000000E+00  0.00000000E+00
  0.00000000E+00  0.00000000E+00  0.00000000E+00
  0.00000000E+00  0.00000000E+00  0.00000000E+00
  0.00000000E+00  0.00000000E+00  0.00000000E+00
  0.00000000E+00  0.00000000E+00  0.00000000E+00
