cubic_FA0750MA0125Cs0125                
   1.00000000000000     
    12.7295608172503130   -0.2050005343744199    0.1397985234791408
    -0.2060426804110259   12.7381216401881971   -0.2796159697944233
     0.1374684008057426   -0.2768068571999645   12.7508517563234456
   Cs   I    Pb   C    N    H 
     1    24     8     7    13    36
Direct
  0.2728144578183272  0.7562358845862269  0.2413396329940044
  0.0307953593836695  0.9751326133390469  0.2467362265486351
  0.0111414326805748  0.0286513836952555  0.7485391502988479
  0.0243259086187732  0.5200616762798572  0.2471301727649318
  0.0402783417577364  0.4634166329167569  0.7443336949670651
  0.5153372925942679  0.9827889194718334  0.2417511407036330
  0.4778953665213412  0.9892509186053399  0.7423302238762353
  0.5166930909975560  0.4958517333326880  0.2429099938115933
  0.5126263251245828  0.4854403476201107  0.7424531898638386
  0.0003702174721134  0.2510720228851225  0.0443804797068799
  0.0054315254114996  0.2454564131716085  0.4840600006220060
  0.0028102656789989  0.7483101136905900  0.9808996492202008
  0.0199209017870859  0.7474780422071269  0.5171608459867483
  0.5180992706024445  0.2538600380045270 -0.0021472151689804
  0.4988175189739300  0.2512103055544599  0.4835812528447911
  0.5117906125838011  0.7547900284606268  0.9812709055569868
  0.5057687735389832  0.7516774600030924  0.4749843041739993
  0.2616009845403166  0.5139852224845951  0.4910932708966688
  0.2634913063181866  0.5300650047266074  0.0076587972101289
  0.2582274199150729 -0.0004970398769306  0.4905510810734128
  0.2562579077500379  0.9948403186716446  0.9990053097230233
  0.7617648775726248  0.5282674780498458  0.5161031582017318
  0.7647825397682622  0.5131160107224987  0.9895234951369625
  0.7584676743010145  0.9902539984636185  0.4930464003341536
  0.7570204647770424  0.9962902181285045  0.9935051910794969
  0.5031278249891979  0.0078152824870210  0.9934032345203673
  0.5078844836947736  0.0020754615427925  0.4932071789008038
  0.5124989227378810  0.5052176288263287  0.9907941565341998
  0.5077083399610057  0.5016588398326501  0.4934554774635310
  0.0078412618059090  0.0032007274073426  0.0011026316259227
  0.0071805695562093  0.9930289898150132  0.4921793421474459
  0.0149986239034074  0.4972653017993719  0.9899192777787474
  0.0147694203629498  0.4966907699434406  0.4976925071841380
  0.2332350337409038  0.2488437418093369  0.2459929243042588
  0.7318819692107561  0.2611467688303100  0.7510033614335982
  0.7518830368527541  0.7570474222947664  0.7743228849052565
  0.2482819172072746  0.7273552981718837  0.7447923157969893
  0.7334888121424670  0.2467624882480813  0.2630157045576398
  0.7386587230005821  0.7523017189629280  0.2556617614568183
  0.2723442586140007  0.2747067457876726  0.7830353331516111
  0.3024938337609873  0.1756417692133424  0.2546557733586094
  0.2559597905287085  0.3486213420855021  0.2333811933963653
  0.7716394265434627  0.1819754306201515  0.7971521991172049
  0.7637201572784695  0.2945373347866711  0.6593366887186272
  0.8458474866093113  0.7243808602255396  0.7476157759238278
  0.6777052288225045  0.7770232040385859  0.7086408968589082
  0.3502161840981750  0.7166065620910785  0.7473110756276073
  0.2036712615156389  0.8189954245788272  0.7468521118234936
  0.7982791736893432  0.1690632317310405  0.2687598213786879
  0.7542999865313564  0.3337050022265017  0.2138759302272453
  0.8035191622255740  0.6865913100770343  0.2940310355730895
  0.7355390818511943  0.7747114802778767  0.1565445599594857
  0.2146880913128034  0.2221534436748137  0.6932853287979712
  0.1502750197273957  0.2241068064006061  0.2492173737301359
  0.2773955682038362  0.1004576404592766  0.2669569930487032
  0.3817567814756272  0.1904597765880217  0.2539416165520093
  0.3315150537309765  0.3793740368862477  0.2308293077389490
  0.1960145332039330  0.3997989193423496  0.2277975365263155
  0.6674542915606662  0.3017658607949961  0.7914066667769509
  0.7425507289083205  0.1588773429104495  0.8682323904856464
  0.8333059220090140  0.1400305086108824  0.7658205098031127
  0.8252019593650611  0.2626063612708579  0.6168882136514425
  0.7321140030126124  0.3598788594697572  0.6302732312999082
  0.7331816943194475  0.7685046648740436  0.8580002035741278
  0.8981300402661454  0.7141566567838500  0.8063416424357431
  0.8722389384523401  0.7159501491384482  0.6711339120433628
  0.6857120201881920  0.7681058054752636  0.6288835942694126
  0.6094742731358355  0.8084070008938686  0.7373105735000032
  0.1975007306438258  0.6563500228057455  0.7409635902200828
  0.3822621988023062  0.6438125693462201  0.7478680254669209
  0.4002816289880385  0.7813082779747352  0.7517242823412029
  0.2468280092536126  0.8879838146588176  0.7521001728390228
  0.1242617881642523  0.8238515027653854  0.7429386681245393
  0.6568676737156766  0.2388057034430527  0.3030277600894452
  0.7778240510659937  0.1062909081656926  0.3132364285072370
  0.8711642552043543  0.1705766657559896  0.2335375365962744
  0.8231823573926687  0.3461564611213185  0.1728666064960103
  0.6973015284357621  0.3884584259181250  0.2106410734114509
  0.6833716188403391  0.7910567970492796  0.3103508082081914
  0.7971639630477357  0.6679346535063093  0.3712067797525140
  0.8577377694238925  0.6459747471481453  0.2492397473302573
  0.7820936505945500  0.7391070341636163  0.0999738872758707
  0.6825932249051554  0.8264231927317749  0.1322760237263292
  0.1639137232614888  0.2729475337591016  0.6600537146559545
  0.1674699101177593  0.1583468738721499  0.7169514776507824
  0.2645558322057283  0.1938363564057461  0.6341837906212057
  0.2160274371808397  0.2902334352294416  0.8475915459721735
  0.3330809152775513  0.2230855436367792  0.8079428407399358
  0.3080972977562146  0.3487593095654135  0.7573790001506631
 
  0.00000000E+00  0.00000000E+00  0.00000000E+00
  0.00000000E+00  0.00000000E+00  0.00000000E+00
  0.00000000E+00  0.00000000E+00  0.00000000E+00
  0.00000000E+00  0.00000000E+00  0.00000000E+00
  0.00000000E+00  0.00000000E+00  0.00000000E+00
  0.00000000E+00  0.00000000E+00  0.00000000E+00
  0.00000000E+00  0.00000000E+00  0.00000000E+00
  0.00000000E+00  0.00000000E+00  0.00000000E+00
  0.00000000E+00  0.00000000E+00  0.00000000E+00
  0.00000000E+00  0.00000000E+00  0.00000000E+00
  0.00000000E+00  0.00000000E+00  0.00000000E+00
  0.00000000E+00  0.00000000E+00  0.00000000E+00
  0.00000000E+00  0.00000000E+00  0.00000000E+00
  0.00000000E+00  0.00000000E+00  0.00000000E+00
  0.00000000E+00  0.00000000E+00  0.00000000E+00
  0.00000000E+00  0.00000000E+00  0.00000000E+00
  0.00000000E+00  0.00000000E+00  0.00000000E+00
  0.00000000E+00  0.00000000E+00  0.00000000E+00
  0.00000000E+00  0.00000000E+00  0.00000000E+00
  0.00000000E+00  0.00000000E+00  0.00000000E+00
  0.00000000E+00  0.00000000E+00  0.00000000E+00
  0.00000000E+00  0.00000000E+00  0.00000000E+00
  0.00000000E+00  0.00000000E+00  0.00000000E+00
  0.00000000E+00  0.00000000E+00  0.00000000E+00
  0.00000000E+00  0.00000000E+00  0.00000000E+00
  0.00000000E+00  0.00000000E+00  0.00000000E+00
  0.00000000E+00  0.00000000E+00  0.00000000E+00
  0.00000000E+00  0.00000000E+00  0.00000000E+00
  0.00000000E+00  0.00000000E+00  0.00000000E+00
  0.00000000E+00  0.00000000E+00  0.00000000E+00
  0.00000000E+00  0.00000000E+00  0.00000000E+00
  0.00000000E+00  0.00000000E+00  0.00000000E+00
  0.00000000E+00  0.00000000E+00  0.00000000E+00
  0.00000000E+00  0.00000000E+00  0.00000000E+00
  0.00000000E+00  0.00000000E+00  0.00000000E+00
  0.00000000E+00  0.00000000E+00  0.00000000E+00
  0.00000000E+00  0.00000000E+00  0.00000000E+00
  0.00000000E+00  0.00000000E+00  0.00000000E+00
  0.00000000E+00  0.00000000E+00  0.00000000E+00
  0.00000000E+00  0.00000000E+00  0.00000000E+00
  0.00000000E+00  0.00000000E+00  0.00000000E+00
  0.00000000E+00  0.00000000E+00  0.00000000E+00
  0.00000000E+00  0.00000000E+00  0.00000000E+00
  0.00000000E+00  0.00000000E+00  0.00000000E+00
  0.00000000E+00  0.00000000E+00  0.00000000E+00
  0.00000000E+00  0.00000000E+00  0.00000000E+00
  0.00000000E+00  0.00000000E+00  0.00000000E+00
  0.00000000E+00  0.00000000E+00  0.00000000E+00
  0.00000000E+00  0.00000000E+00  0.00000000E+00
  0.00000000E+00  0.00000000E+00  0.00000000E+00
  0.00000000E+00  0.00000000E+00  0.00000000E+00
  0.00000000E+00  0.00000000E+00  0.00000000E+00
  0.00000000E+00  0.00000000E+00  0.00000000E+00
  0.00000000E+00  0.00000000E+00  0.00000000E+00
  0.00000000E+00  0.00000000E+00  0.00000000E+00
  0.00000000E+00  0.00000000E+00  0.00000000E+00
  0.00000000E+00  0.00000000E+00  0.00000000E+00
  0.00000000E+00  0.00000000E+00  0.00000000E+00
  0.00000000E+00  0.00000000E+00  0.00000000E+00
  0.00000000E+00  0.00000000E+00  0.00000000E+00
  0.00000000E+00  0.00000000E+00  0.00000000E+00
  0.00000000E+00  0.00000000E+00  0.00000000E+00
  0.00000000E+00  0.00000000E+00  0.00000000E+00
  0.00000000E+00  0.00000000E+00  0.00000000E+00
  0.00000000E+00  0.00000000E+00  0.00000000E+00
  0.00000000E+00  0.00000000E+00  0.00000000E+00
  0.00000000E+00  0.00000000E+00  0.00000000E+00
  0.00000000E+00  0.00000000E+00  0.00000000E+00
  0.00000000E+00  0.00000000E+00  0.00000000E+00
  0.00000000E+00  0.00000000E+00  0.00000000E+00
  0.00000000E+00  0.00000000E+00  0.00000000E+00
  0.00000000E+00  0.00000000E+00  0.00000000E+00
  0.00000000E+00  0.00000000E+00  0.00000000E+00
  0.00000000E+00  0.00000000E+00  0.00000000E+00
  0.00000000E+00  0.00000000E+00  0.00000000E+00
  0.00000000E+00  0.00000000E+00  0.00000000E+00
  0.00000000E+00  0.00000000E+00  0.00000000E+00
  0.00000000E+00  0.00000000E+00  0.00000000E+00
  0.00000000E+00  0.00000000E+00  0.00000000E+00
  0.00000000E+00  0.00000000E+00  0.00000000E+00
  0.00000000E+00  0.00000000E+00  0.00000000E+00
  0.00000000E+00  0.00000000E+00  0.00000000E+00
  0.00000000E+00  0.00000000E+00  0.00000000E+00
  0.00000000E+00  0.00000000E+00  0.00000000E+00
  0.00000000E+00  0.00000000E+00  0.00000000E+00
  0.00000000E+00  0.00000000E+00  0.00000000E+00
  0.00000000E+00  0.00000000E+00  0.00000000E+00
  0.00000000E+00  0.00000000E+00  0.00000000E+00
  0.00000000E+00  0.00000000E+00  0.00000000E+00
