ortho_FA0375MA0500Cs0125                
   1.00000000000000     
    11.4606130475031325   -0.0413090431778299    0.2251119710092364
    -0.0418962949625319    9.4884285917266009   -0.0516774942450485
     0.3777248369027429   -0.1042324062507288   18.6063631375062997
   Pb   I    Cs   C    N    H 
     8    24     1     7    10    39
Direct
  0.1671167506811501  0.1108343445119837  0.4366059688313542
  0.1612167273501158  0.6122819764956727  0.4408298108640722
  0.8422952914499362  0.3863126536820149  0.5617090731987483
  0.8485882423562808  0.8720263088461407  0.5597712175971927
  0.3671589194621266  0.3761784680113385  0.9440992019855821
  0.3592727529793952  0.8691427682388199  0.9522387255815161
  0.6712067392774439  0.1275994294543675  0.0582302476537352
  0.6698049548826664  0.6283733141007847  0.0574398867288372
  0.1819842803684596  0.1266309580153825  0.9996394147994485
  0.1853094079135747  0.6233849544162865  0.0087145387425915
  0.8408260806858041  0.3804750065356216  0.9998367104459943
  0.8277953562399945  0.8770262716616906  0.9893457689985248
  0.3358638981514244  0.3612762174470897  0.4949183246419073
  0.3369763094945702  0.8636862362635280  0.4994704148752098
  0.6878085506364053  0.1240019463079311  0.5069164421923725
  0.6817279818778007  0.6271774234346413  0.4973671180802987
  0.3096295046082415  0.1199412271476324  0.2935809012378112
  0.2761352881453964  0.6142775778415015  0.2847431140073414
  0.7021226257649500  0.4059591330940811  0.7017855232717377
  0.7133591915141433  0.8950585640182598  0.7043682247178678
  0.2713977709400925  0.3757121228108979  0.7859854473158266
  0.2363029757175232  0.8499467803414509  0.8025235321904400
  0.8226172723634719  0.1272702671467024  0.1927768175311587
  0.8028624664592340  0.6166836880356290  0.2033394229352039
  0.0262756521857347  0.1308917297710772  0.6136844339821383
  0.0407404007092482  0.6279116511036826  0.6071789360977050
  0.9933384516659811  0.3579664600172068  0.3898429921855773
  0.9878754818551677  0.8608144336762836  0.3928004606161592
  0.4787006958366498  0.3759126190541216  0.1036881394465991
  0.4856215686663024  0.8775397360898437  0.1117692350116822
  0.5398248199482000  0.1243630022710661  0.8965947600825067
  0.5444584076645336  0.6274819757777317  0.8978622791020533
  0.0932043350689407  0.3653399043380794  0.1726274837507648
  0.5835407784029437  0.3667296896520140  0.3419015280982650
  0.9167943331378060  0.6158139610423444  0.8245495840124957
  0.9195396438353308  0.1411727837238275  0.8490521424157155
  0.4640368268843824  0.6848192151471505  0.6741693064025340
  0.4554425318591816  0.1151829567261666  0.6629535685376519
  0.1079453397269943  0.9087115898290329  0.1840192502383579
  0.6254232974450663  0.9103619894589875  0.3281875269343444
  0.6880126202055266  0.3119355278692778  0.3442233627948504
  0.5474897032945539  0.4418540205821747  0.2882069934662955
  0.0030894973096728  0.5365672731379524  0.8446347125437706
  0.9302144184821108  0.7443093873986587  0.8006435655212512
  0.0300129975932512  0.1294012951390389  0.8279334096294201
  0.8335741554251372  0.1620091245141062  0.8062523836165424
  0.3825044511167152  0.5808317595530765  0.6423203579862582
  0.3265975554780208  0.0956965510586684  0.6667835386951413
  0.0197785078216972  0.8562725139102597  0.1333855480652639
  0.5079643208946383  0.8422717313229711  0.3326194631441547
  0.5221280608897839  0.3494076098039303  0.3876813328109130
  0.7095813611893675  0.2567363951211269  0.3890599629961067
  0.7479825272875940  0.3176252328661140  0.3020572233494202
  0.6012949600873345  0.4635381472879572  0.2443928263773501
  0.4616159712502370  0.4733212165750613  0.2875872045654739
  0.8286346271527258  0.5707441315489359  0.8273954344050011
  0.9852537657781887  0.4427383351180709  0.8687076500220433
  0.0883114869989069  0.5693167598956422  0.8412640508565221
  0.0116818924223643  0.7906202390842141  0.7968078452687856
  0.8603119064505799  0.7951716149081013  0.7790131870396662
  0.8984165513208495  0.1340209266258767  0.9066195326009974
  0.0914327451391264  0.1135983830556264  0.8654628478172808
  0.0569725314406673  0.1342742059639587  0.7749771688941448
  0.8442312879337814  0.1680702903808348  0.7515080200439950
  0.7495106015164287  0.1674203740561694  0.8266964371983877
  0.3021969607365845  0.6241114202153377  0.6321460829500966
  0.3653423337088201  0.4979850887279968  0.6779563507297846
  0.4148325388831842  0.5387226097399775  0.5938179668013290
  0.4312460833453471  0.7108916925116312  0.7287377553147003
  0.5505536816714771  0.6372974245165602  0.6754337114092075
  0.4676531976463907  0.7785196511107925  0.6404662963542489
  0.2921239001412355  0.0838087520234157  0.6165745126672755
  0.2874419882396020  0.1823646487949340  0.6929187529944135
  0.3016153519143306  0.0082576871752311  0.6976851846970586
  0.4771357011516818  0.2135565238310401  0.6351970973303100
  0.4868468582176911  0.1195561654918559  0.7177077904429010
  0.4956790764738926  0.0272034953561694  0.6330823351670402
  0.9661075717408668  0.9370799131483581  0.1174365506512590
  0.9629764896237490  0.7812774456894301  0.1571270908089507
  0.0588807800938526  0.8099939881433629  0.0876580066231557
  0.0620400619336862  0.9534312371315470  0.2316380789339609
  0.1624871152619797  0.8209379689862304  0.2000104897378848
  0.1625951725460305  0.9887375237179490  0.1568293452529428
  0.4458103069586890  0.9041019946670789  0.3080876989349792
  0.4765247164664702  0.8308763447354762  0.3857428497254775
  0.5061168413790350  0.7439888160606997  0.3083741166776910
  0.6174676271206492  0.0159673123119770  0.3520670443959261
  0.6864558808848072  0.8479893164397204  0.3583349107435567
  0.6553117088719911  0.9172708162468213  0.2717167713371625
 
  0.00000000E+00  0.00000000E+00  0.00000000E+00
  0.00000000E+00  0.00000000E+00  0.00000000E+00
  0.00000000E+00  0.00000000E+00  0.00000000E+00
  0.00000000E+00  0.00000000E+00  0.00000000E+00
  0.00000000E+00  0.00000000E+00  0.00000000E+00
  0.00000000E+00  0.00000000E+00  0.00000000E+00
  0.00000000E+00  0.00000000E+00  0.00000000E+00
  0.00000000E+00  0.00000000E+00  0.00000000E+00
  0.00000000E+00  0.00000000E+00  0.00000000E+00
  0.00000000E+00  0.00000000E+00  0.00000000E+00
  0.00000000E+00  0.00000000E+00  0.00000000E+00
  0.00000000E+00  0.00000000E+00  0.00000000E+00
  0.00000000E+00  0.00000000E+00  0.00000000E+00
  0.00000000E+00  0.00000000E+00  0.00000000E+00
  0.00000000E+00  0.00000000E+00  0.00000000E+00
  0.00000000E+00  0.00000000E+00  0.00000000E+00
  0.00000000E+00  0.00000000E+00  0.00000000E+00
  0.00000000E+00  0.00000000E+00  0.00000000E+00
  0.00000000E+00  0.00000000E+00  0.00000000E+00
  0.00000000E+00  0.00000000E+00  0.00000000E+00
  0.00000000E+00  0.00000000E+00  0.00000000E+00
  0.00000000E+00  0.00000000E+00  0.00000000E+00
  0.00000000E+00  0.00000000E+00  0.00000000E+00
  0.00000000E+00  0.00000000E+00  0.00000000E+00
  0.00000000E+00  0.00000000E+00  0.00000000E+00
  0.00000000E+00  0.00000000E+00  0.00000000E+00
  0.00000000E+00  0.00000000E+00  0.00000000E+00
  0.00000000E+00  0.00000000E+00  0.00000000E+00
  0.00000000E+00  0.00000000E+00  0.00000000E+00
  0.00000000E+00  0.00000000E+00  0.00000000E+00
  0.00000000E+00  0.00000000E+00  0.00000000E+00
  0.00000000E+00  0.00000000E+00  0.00000000E+00
  0.00000000E+00  0.00000000E+00  0.00000000E+00
  0.00000000E+00  0.00000000E+00  0.00000000E+00
  0.00000000E+00  0.00000000E+00  0.00000000E+00
  0.00000000E+00  0.00000000E+00  0.00000000E+00
  0.00000000E+00  0.00000000E+00  0.00000000E+00
  0.00000000E+00  0.00000000E+00  0.00000000E+00
  0.00000000E+00  0.00000000E+00  0.00000000E+00
  0.00000000E+00  0.00000000E+00  0.00000000E+00
  0.00000000E+00  0.00000000E+00  0.00000000E+00
  0.00000000E+00  0.00000000E+00  0.00000000E+00
  0.00000000E+00  0.00000000E+00  0.00000000E+00
  0.00000000E+00  0.00000000E+00  0.00000000E+00
  0.00000000E+00  0.00000000E+00  0.00000000E+00
  0.00000000E+00  0.00000000E+00  0.00000000E+00
  0.00000000E+00  0.00000000E+00  0.00000000E+00
  0.00000000E+00  0.00000000E+00  0.00000000E+00
  0.00000000E+00  0.00000000E+00  0.00000000E+00
  0.00000000E+00  0.00000000E+00  0.00000000E+00
  0.00000000E+00  0.00000000E+00  0.00000000E+00
  0.00000000E+00  0.00000000E+00  0.00000000E+00
  0.00000000E+00  0.00000000E+00  0.00000000E+00
  0.00000000E+00  0.00000000E+00  0.00000000E+00
  0.00000000E+00  0.00000000E+00  0.00000000E+00
  0.00000000E+00  0.00000000E+00  0.00000000E+00
  0.00000000E+00  0.00000000E+00  0.00000000E+00
  0.00000000E+00  0.00000000E+00  0.00000000E+00
  0.00000000E+00  0.00000000E+00  0.00000000E+00
  0.00000000E+00  0.00000000E+00  0.00000000E+00
  0.00000000E+00  0.00000000E+00  0.00000000E+00
  0.00000000E+00  0.00000000E+00  0.00000000E+00
  0.00000000E+00  0.00000000E+00  0.00000000E+00
  0.00000000E+00  0.00000000E+00  0.00000000E+00
  0.00000000E+00  0.00000000E+00  0.00000000E+00
  0.00000000E+00  0.00000000E+00  0.00000000E+00
  0.00000000E+00  0.00000000E+00  0.00000000E+00
  0.00000000E+00  0.00000000E+00  0.00000000E+00
  0.00000000E+00  0.00000000E+00  0.00000000E+00
  0.00000000E+00  0.00000000E+00  0.00000000E+00
  0.00000000E+00  0.00000000E+00  0.00000000E+00
  0.00000000E+00  0.00000000E+00  0.00000000E+00
  0.00000000E+00  0.00000000E+00  0.00000000E+00
  0.00000000E+00  0.00000000E+00  0.00000000E+00
  0.00000000E+00  0.00000000E+00  0.00000000E+00
  0.00000000E+00  0.00000000E+00  0.00000000E+00
  0.00000000E+00  0.00000000E+00  0.00000000E+00
  0.00000000E+00  0.00000000E+00  0.00000000E+00
  0.00000000E+00  0.00000000E+00  0.00000000E+00
  0.00000000E+00  0.00000000E+00  0.00000000E+00
  0.00000000E+00  0.00000000E+00  0.00000000E+00
  0.00000000E+00  0.00000000E+00  0.00000000E+00
  0.00000000E+00  0.00000000E+00  0.00000000E+00
  0.00000000E+00  0.00000000E+00  0.00000000E+00
  0.00000000E+00  0.00000000E+00  0.00000000E+00
  0.00000000E+00  0.00000000E+00  0.00000000E+00
  0.00000000E+00  0.00000000E+00  0.00000000E+00
  0.00000000E+00  0.00000000E+00  0.00000000E+00
  0.00000000E+00  0.00000000E+00  0.00000000E+00
