cubic_FA0250MA0250Cs0500                
   1.00000000000000     
    12.7037632697062293   -0.0129326270681525    0.0013092688200808
    -0.0140902955076419   12.6637151757998954    0.0035684831288191
     0.0015613021948461    0.0039797519520798   12.6739275564256086
   Cs   I    Pb   C    N    H 
     4    24     8     4     6    22
Direct
  0.2594413756342402  0.2498389984532317  0.7670747067593656
  0.2593638994096861  0.7462199721734977  0.2205597609345558
  0.7885430858926584  0.2521055676355052  0.7452378411196822
  0.7577091325219976  0.7532383778026842  0.2379550417393516
  0.0382479177263123  0.9978111874243073  0.2533119144947159
  0.9905786042246327  0.9852830395303662  0.7508942888018914
  0.0116531603207832  0.5027791752681587  0.2488057647057736
  0.0442287597658092  0.5144343958509637  0.7472182885954938
  0.5051241736665930  0.9551322821502461  0.2544283007303195
  0.5259140350298545  0.0608325232619430  0.7536812855288951
  0.5224989595692592  0.5462748247867359  0.2490881513153680
  0.5019647013477292  0.4438912160072511  0.7496074753033590
  0.0245835400808440  0.2527276193592620  0.9743694600011230
  0.0472965120671288  0.2507483811835381  0.5301621054964238
 -0.0083577116618723  0.7527743166793829  0.0256903851640421
  0.9645376439923542  0.7508436319910413  0.5016005561102744
  0.4837079785284135  0.2552424774801729  0.0579070700192656
  0.4804218033139244  0.2517974838357723  0.4544255723248516
  0.5213682511880063  0.7554228767924600  0.9787728902891235
  0.5325554777357283  0.7519124595612662  0.5401623246776791
  0.2620539720414394  0.5419240989687601  0.4800270980079466
  0.2631846007309924  0.5222043296776978  0.0061946569488546
  0.2597716356915142  0.9755157666751780  0.5127854206533000
  0.2593289172934126  0.9926081864353308  0.9877968289354015
  0.7616189634572376  0.4508170740820222  0.5106383290845231
  0.7628900553430962  0.4869588745661578  0.9709977220723018
  0.7595419633603634  0.0442090459473157  0.4847060051313581
  0.7579842377402468  0.0254532816387923  0.0359063803941211
  0.5080434644605978  0.0052268698171189  0.0008811745197946
  0.5099967861791006 -0.0001174877894118  0.5030716742757950
  0.5113927674522988  0.5025269130296526  0.9949117317106042
  0.5126576652186001  0.5022480252268382  0.5005555075025107
  0.0070883892678788  0.0018093763512965  0.0011609627117587
  0.0068883348505443  0.0042869364848318  0.4999520689507564
  0.0120734126592562  0.5032947655246112  0.9963346677448139
  0.0066919024682353  0.4981497569361833  0.4989459467541469
  0.7380237015423675  0.7564782339058979  0.7717203444608801
  0.2212327796255258  0.2464576836630033  0.2598467740465171
  0.2738555900650074  0.7532512679170729  0.7732045096682612
  0.7912584881127660  0.2651296290144708  0.2484185186448766
  0.8171872560948018  0.6926188699647781  0.7535499971480134
  0.7289699072718209  0.8519332230114098  0.7324708859875277
  0.2808023688100864  0.1618376473481325  0.2595466741377178
  0.2538981729353629  0.3428926985918534  0.2408399380505511
  0.2215416492652618  0.7461992112448749  0.6683467741654280
  0.6838909276209373  0.2180752607672072  0.2552804665761309
  0.6752092637266063  0.7288868949492364  0.8242136116758869
  0.8201318936962256  0.6213830059064301  0.7913072740173728
  0.8771485139141832  0.7115471735830086  0.7026762226524355
  0.7855440918562053  0.8848731189783325  0.6854091691312552
  0.6634126003229928  0.8963599209782609  0.7476066300756941
  0.1378875216085703  0.2352017249118086  0.2781653425793295
  0.2469408400749637  0.0903005175987054  0.2742888445232566
  0.3595381375596509  0.1645487134329953  0.2437063607896325
  0.3298482720067479  0.3599983580735995  0.2200455418185764
  0.2001054837907726  0.4031541023096625  0.2408473703169958
  0.2322892339200065  0.8155800386836956  0.6244235842886139
  0.1414308237026179  0.7332261123100271  0.6748453944522917
  0.2504843186571599  0.6842554473200754  0.6220117331837781
  0.2403994034026477  0.8196770590681206  0.8172800301765416
  0.2607716461959342  0.6794938719680527  0.8166099166667775
  0.3582839252688545  0.7660762923293393  0.7609311688002847
  0.6370195733481203  0.2378316433338558  0.1903868072830335
  0.6425593995670714  0.2418491182525454  0.3224905203355930
  0.6869897251869179  0.1364744241168570  0.2575426594695422
  0.7841004480735221  0.3511670836910441  0.2455642208719596
  0.8359506574074144  0.2414470361395921  0.3184154911558382
  0.8295437212385856  0.2357974714912466  0.1767174571925749
 
  0.00000000E+00  0.00000000E+00  0.00000000E+00
  0.00000000E+00  0.00000000E+00  0.00000000E+00
  0.00000000E+00  0.00000000E+00  0.00000000E+00
  0.00000000E+00  0.00000000E+00  0.00000000E+00
  0.00000000E+00  0.00000000E+00  0.00000000E+00
  0.00000000E+00  0.00000000E+00  0.00000000E+00
  0.00000000E+00  0.00000000E+00  0.00000000E+00
  0.00000000E+00  0.00000000E+00  0.00000000E+00
  0.00000000E+00  0.00000000E+00  0.00000000E+00
  0.00000000E+00  0.00000000E+00  0.00000000E+00
  0.00000000E+00  0.00000000E+00  0.00000000E+00
  0.00000000E+00  0.00000000E+00  0.00000000E+00
  0.00000000E+00  0.00000000E+00  0.00000000E+00
  0.00000000E+00  0.00000000E+00  0.00000000E+00
  0.00000000E+00  0.00000000E+00  0.00000000E+00
  0.00000000E+00  0.00000000E+00  0.00000000E+00
  0.00000000E+00  0.00000000E+00  0.00000000E+00
  0.00000000E+00  0.00000000E+00  0.00000000E+00
  0.00000000E+00  0.00000000E+00  0.00000000E+00
  0.00000000E+00  0.00000000E+00  0.00000000E+00
  0.00000000E+00  0.00000000E+00  0.00000000E+00
  0.00000000E+00  0.00000000E+00  0.00000000E+00
  0.00000000E+00  0.00000000E+00  0.00000000E+00
  0.00000000E+00  0.00000000E+00  0.00000000E+00
  0.00000000E+00  0.00000000E+00  0.00000000E+00
  0.00000000E+00  0.00000000E+00  0.00000000E+00
  0.00000000E+00  0.00000000E+00  0.00000000E+00
  0.00000000E+00  0.00000000E+00  0.00000000E+00
  0.00000000E+00  0.00000000E+00  0.00000000E+00
  0.00000000E+00  0.00000000E+00  0.00000000E+00
  0.00000000E+00  0.00000000E+00  0.00000000E+00
  0.00000000E+00  0.00000000E+00  0.00000000E+00
  0.00000000E+00  0.00000000E+00  0.00000000E+00
  0.00000000E+00  0.00000000E+00  0.00000000E+00
  0.00000000E+00  0.00000000E+00  0.00000000E+00
  0.00000000E+00  0.00000000E+00  0.00000000E+00
  0.00000000E+00  0.00000000E+00  0.00000000E+00
  0.00000000E+00  0.00000000E+00  0.00000000E+00
  0.00000000E+00  0.00000000E+00  0.00000000E+00
  0.00000000E+00  0.00000000E+00  0.00000000E+00
  0.00000000E+00  0.00000000E+00  0.00000000E+00
  0.00000000E+00  0.00000000E+00  0.00000000E+00
  0.00000000E+00  0.00000000E+00  0.00000000E+00
  0.00000000E+00  0.00000000E+00  0.00000000E+00
  0.00000000E+00  0.00000000E+00  0.00000000E+00
  0.00000000E+00  0.00000000E+00  0.00000000E+00
  0.00000000E+00  0.00000000E+00  0.00000000E+00
  0.00000000E+00  0.00000000E+00  0.00000000E+00
  0.00000000E+00  0.00000000E+00  0.00000000E+00
  0.00000000E+00  0.00000000E+00  0.00000000E+00
  0.00000000E+00  0.00000000E+00  0.00000000E+00
  0.00000000E+00  0.00000000E+00  0.00000000E+00
  0.00000000E+00  0.00000000E+00  0.00000000E+00
  0.00000000E+00  0.00000000E+00  0.00000000E+00
  0.00000000E+00  0.00000000E+00  0.00000000E+00
  0.00000000E+00  0.00000000E+00  0.00000000E+00
  0.00000000E+00  0.00000000E+00  0.00000000E+00
  0.00000000E+00  0.00000000E+00  0.00000000E+00
  0.00000000E+00  0.00000000E+00  0.00000000E+00
  0.00000000E+00  0.00000000E+00  0.00000000E+00
  0.00000000E+00  0.00000000E+00  0.00000000E+00
  0.00000000E+00  0.00000000E+00  0.00000000E+00
  0.00000000E+00  0.00000000E+00  0.00000000E+00
  0.00000000E+00  0.00000000E+00  0.00000000E+00
  0.00000000E+00  0.00000000E+00  0.00000000E+00
  0.00000000E+00  0.00000000E+00  0.00000000E+00
  0.00000000E+00  0.00000000E+00  0.00000000E+00
  0.00000000E+00  0.00000000E+00  0.00000000E+00
