ortho_FA0375MA0000Cs0625                
   1.00000000000000     
    11.1435072602548075   -0.1639484787673608    0.1021032039835693
    -0.1544651314716022    9.6550163678340297   -0.0333504097508589
     0.1662236233118727   -0.0602521632705945   18.5837552427169292
   Pb   I    Cs   C    N    H 
     8    24     5     3     6    15
Direct
  0.1528582190348543  0.1235839167026885  0.4235528606186871
  0.1612661897256161  0.6251479266218904  0.4267641981474473
  0.8489962689827356  0.3710361831978075  0.5438211979437656
  0.8303666995714395  0.8725597354602290  0.5397299272798440
  0.3611962451146531  0.3713513893706128  0.9490036893704034
  0.3541702867849794  0.8670296811816092  0.9462127929619026
  0.6757840498438370  0.1235216175555204  0.0655075368401402
  0.6736829844112912  0.6278228380406012  0.0658599368719942
  0.1881306608937978  0.1179032612962810  0.0100274101286461
  0.1870058474195029  0.6161608276121258  0.0094751654037083
  0.8482927091847762  0.3852252933968754  0.0076107687355086
  0.8460297376396128  0.8782211851521319  0.0074039691515145
  0.3276547433891085  0.3674175494542391  0.4815128548612687
  0.3311245121657224  0.8958345998297170  0.4794820222849244
  0.6733319742973819  0.1278528341206499  0.4796461494072294
  0.6650320144708051  0.6061602777014000  0.4848195296381089
  0.2843222565274804  0.1216519312145459  0.2741306854996286
  0.2899848845696091  0.6255326980976080  0.2776823383690908
  0.7376266596941592  0.3564892048168664  0.6941630843378140
  0.6720108098309886  0.8815438362997503  0.6785618823792725
  0.2521368634923927  0.3501799805962696  0.7988459736417628
  0.2397208209960321  0.8656683171051744  0.7913653576150462
  0.7934719627567226  0.1231560787430685  0.2159577351042390
  0.7893107198650722  0.6239407837200157  0.2156532925536842
  0.0224442425142096  0.1166854184733204  0.5920700746865805
  0.0208198987004619  0.6438291777536150  0.5953916735694428
  0.9781405194305758  0.3795891818791855  0.3769747800745494
  0.9737705387559874  0.8579634606472262  0.3782162092803560
  0.4887888410368165  0.3690495645306000  0.1130850644504654
  0.4833251482297499  0.8728860391308606  0.1086524536513385
  0.5402832552012558  0.1252750057956934  0.9013790326265487
  0.5461015921598074  0.6295783773183683  0.8978892353138546
  0.4218238223156615  0.1372223341557047  0.6521838078403680
  0.5652793360452457  0.3687144846213509  0.3189877492650326
  0.5685593316252127  0.8721084935201133  0.3192697555843272
  0.0731544744470339  0.3725721598915838  0.1719322922986268
  0.0685687225469889  0.8691742775026662  0.1707896366240734
  0.9079231323319289  0.1241612808576611  0.8511436431774558
  0.9093161974637078  0.6227925399183767  0.8341490605886338
  0.4063147592256381  0.6232808787191284  0.6774240216267018
  0.0211208152426472  0.0933808543596864  0.8422449891351492
  0.8218873276346990  0.0959389331804410  0.8056940905831159
  0.0190210960357757  0.5777032391579445  0.8356715453641732
  0.8734806880631693  0.7163444669614165  0.7886611628421767
  0.4917084021017903  0.5491454482000405  0.7035355566191601
  0.3883065071240517  0.6432889653472820  0.6087599825600460
  0.8837723327947176  0.1810102410572635  0.9002734404187182
  0.0803816748178472  0.1160349263458766  0.8826053458886803
  0.0546942965539355  0.0381465845953204  0.7995554218233871
  0.8325054183522275  0.0468552181245663  0.7570541139807476
  0.7362623221609624  0.1248022720259031  0.8185114578854278
  0.8437927238365600  0.5800125919475356  0.8732892807429233
  0.0424021238062063  0.5079428408724759  0.8734392365386660
  0.0874100645743240  0.6183058930940420  0.8039775731889531
  0.9270324511344058  0.7490433644465663  0.7465982253199434
  0.7849816171592908  0.7411375557759605  0.7862947475706538
  0.3459461512565610  0.6736507054242137  0.7160672876402604
  0.4994305001709374  0.5435762367732878  0.7582475868330515
  0.5594020104573336  0.5047034532119486  0.6736540460827889
  0.4430956022382828  0.6046694515146237  0.5689936370081385
  0.3219993023822073  0.7066208098547956  0.5929904353420011
 
  0.00000000E+00  0.00000000E+00  0.00000000E+00
  0.00000000E+00  0.00000000E+00  0.00000000E+00
  0.00000000E+00  0.00000000E+00  0.00000000E+00
  0.00000000E+00  0.00000000E+00  0.00000000E+00
  0.00000000E+00  0.00000000E+00  0.00000000E+00
  0.00000000E+00  0.00000000E+00  0.00000000E+00
  0.00000000E+00  0.00000000E+00  0.00000000E+00
  0.00000000E+00  0.00000000E+00  0.00000000E+00
  0.00000000E+00  0.00000000E+00  0.00000000E+00
  0.00000000E+00  0.00000000E+00  0.00000000E+00
  0.00000000E+00  0.00000000E+00  0.00000000E+00
  0.00000000E+00  0.00000000E+00  0.00000000E+00
  0.00000000E+00  0.00000000E+00  0.00000000E+00
  0.00000000E+00  0.00000000E+00  0.00000000E+00
  0.00000000E+00  0.00000000E+00  0.00000000E+00
  0.00000000E+00  0.00000000E+00  0.00000000E+00
  0.00000000E+00  0.00000000E+00  0.00000000E+00
  0.00000000E+00  0.00000000E+00  0.00000000E+00
  0.00000000E+00  0.00000000E+00  0.00000000E+00
  0.00000000E+00  0.00000000E+00  0.00000000E+00
  0.00000000E+00  0.00000000E+00  0.00000000E+00
  0.00000000E+00  0.00000000E+00  0.00000000E+00
  0.00000000E+00  0.00000000E+00  0.00000000E+00
  0.00000000E+00  0.00000000E+00  0.00000000E+00
  0.00000000E+00  0.00000000E+00  0.00000000E+00
  0.00000000E+00  0.00000000E+00  0.00000000E+00
  0.00000000E+00  0.00000000E+00  0.00000000E+00
  0.00000000E+00  0.00000000E+00  0.00000000E+00
  0.00000000E+00  0.00000000E+00  0.00000000E+00
  0.00000000E+00  0.00000000E+00  0.00000000E+00
  0.00000000E+00  0.00000000E+00  0.00000000E+00
  0.00000000E+00  0.00000000E+00  0.00000000E+00
  0.00000000E+00  0.00000000E+00  0.00000000E+00
  0.00000000E+00  0.00000000E+00  0.00000000E+00
  0.00000000E+00  0.00000000E+00  0.00000000E+00
  0.00000000E+00  0.00000000E+00  0.00000000E+00
  0.00000000E+00  0.00000000E+00  0.00000000E+00
  0.00000000E+00  0.00000000E+00  0.00000000E+00
  0.00000000E+00  0.00000000E+00  0.00000000E+00
  0.00000000E+00  0.00000000E+00  0.00000000E+00
  0.00000000E+00  0.00000000E+00  0.00000000E+00
  0.00000000E+00  0.00000000E+00  0.00000000E+00
  0.00000000E+00  0.00000000E+00  0.00000000E+00
  0.00000000E+00  0.00000000E+00  0.00000000E+00
  0.00000000E+00  0.00000000E+00  0.00000000E+00
  0.00000000E+00  0.00000000E+00  0.00000000E+00
  0.00000000E+00  0.00000000E+00  0.00000000E+00
  0.00000000E+00  0.00000000E+00  0.00000000E+00
  0.00000000E+00  0.00000000E+00  0.00000000E+00
  0.00000000E+00  0.00000000E+00  0.00000000E+00
  0.00000000E+00  0.00000000E+00  0.00000000E+00
  0.00000000E+00  0.00000000E+00  0.00000000E+00
  0.00000000E+00  0.00000000E+00  0.00000000E+00
  0.00000000E+00  0.00000000E+00  0.00000000E+00
  0.00000000E+00  0.00000000E+00  0.00000000E+00
  0.00000000E+00  0.00000000E+00  0.00000000E+00
  0.00000000E+00  0.00000000E+00  0.00000000E+00
  0.00000000E+00  0.00000000E+00  0.00000000E+00
  0.00000000E+00  0.00000000E+00  0.00000000E+00
  0.00000000E+00  0.00000000E+00  0.00000000E+00
  0.00000000E+00  0.00000000E+00  0.00000000E+00
