ortho_FA0250MA0125Cs0625                
   1.00000000000000     
    11.1316873112131773   -0.0503158804464427    0.0560153019625168
    -0.0465597219458524    9.6603335206867573   -0.0448073307135598
     0.0943213864245830   -0.0819889356356660   18.4944034846441880
   Pb   I    Cs   C    N    H 
     8    24     5     3     5    16
Direct
  0.1709094844655188  0.1130963033216209  0.4370850142739142
  0.1710890538629957  0.6048783444481453  0.4420352636886221
  0.8362280555186271  0.3687063967700515  0.5521049675389423
  0.8428933892522292  0.8778314386065877  0.5565012446754178
  0.3593402424646255  0.3732484867166704  0.9358617999442548
  0.3426382987468681  0.8896089746098831  0.9376947153655396
  0.6571960604226569  0.1275203462910566  0.0602167909438839
  0.6614951081984008  0.6277045928406780  0.0628227088955523
  0.1697330181250782  0.1468318303838744 -0.0113880153043894
  0.1749893626384951  0.6170386151374304 -0.0086033227732819
  0.8313789648586394  0.3731499873719008  0.0027957600236741
  0.8195353038633705  0.8887964202442159  0.9886579792028252
  0.3465842747430882  0.3624121324786062  0.5000500832681781
  0.3358277249284852  0.8623500555437826  0.5010573908979707
  0.6739448315426453  0.1129255242740644  0.4878815893892919
  0.6737505215149412  0.6240193801729732  0.4935388238407138
  0.3033754385882000  0.1195535919429419  0.2897066467253120
  0.3180769434170953  0.5847197361993896  0.2989455547945289
  0.7035294467647436  0.3551560370575919  0.6976600124957962
  0.7232882327525660  0.9094289324022233  0.7044980697737672
  0.2485540090757791  0.3548689959623568  0.7799773915353552
  0.2255706018551159  0.8917001895121432  0.7871414913975329
  0.7859441469377479  0.1223135100241833  0.2099928108926598
  0.7855178691181312  0.6209703040084169  0.2120114201202388
  0.0285139938634251  0.1298023213247309  0.6015140035221027
  0.0227204031128867  0.6181984295376958  0.6085121833411400
  0.9867960600028972  0.3611973969779556  0.3873701377541861
  0.9887758192968413  0.8584653902627088  0.3926568006642692
  0.4702374370283977  0.3820728020677057  0.1050763648381570
  0.4699387215924658  0.8720477105990445  0.1078857406909158
  0.5391612309993165  0.1230396921034205  0.8917681091552855
  0.5302000389554785  0.6419892878770006  0.8964636347230889
  0.4359296031477600  0.1070673493300365  0.6608899976699126
  0.5926844437175400  0.3630123813963033  0.3279967446053639
  0.5728729073211333  0.8657644467388160  0.3229095549282744
  0.0729964762464144  0.3643523664604253  0.1721193217971397
  0.9388807505675373  0.1420645756971756  0.8200184152343015
  0.0539691853992300  0.8792765750949962  0.1785589250174987
  0.9148283142485059  0.6221489738964736  0.8431217711325660
  0.4675550865453180  0.6658587244832138  0.6827140022151887
  0.1205389232472778  0.8015690762868102  0.2195819886301373
  0.0641114067454218  0.8870759353415804  0.1081251294563262
  0.0231508141645544  0.6034656702574848  0.8161116728566707
  0.8166688056468439  0.6290960618347229  0.8048398521520456
  0.3598973320915296  0.5935083832502455  0.6531734731081267
 -0.0147041336163826  0.9430428526154572  0.2052103780161537
  0.1071072073309983  0.8056331690026282  0.2744763518029235
  0.1910671006622125  0.7433725651782478  0.2012974500932418
  0.1186331839134104  0.8216982020229269  0.0786471042337672
  0.0010216499702662  0.9391138227784783  0.0791378667847299
  0.9063783579527216  0.6325841182819205  0.9018348757635077
  0.0947906371367915  0.6035748111150983  0.8503694210215577
  0.0399282406835184  0.5979465739453699  0.7615487565094077
  0.8165844851392570  0.6188620117060780  0.7497705668794320
  0.7348900353654799  0.6426401850199396  0.8299258406524631
  0.2972813255315944  0.6627439833694270  0.6341632464931123
  0.3176158407568572  0.5321907373396706  0.6928597304161729
  0.3810253598259870  0.5277848397480550  0.6099435702629193
  0.4371436924352283  0.7415353970883805  0.7232523345540826
  0.5253276921567501  0.5889875864181802  0.7078777240413380
  0.5166020022098291  0.7161538576007300  0.6384564842312409
 
  0.00000000E+00  0.00000000E+00  0.00000000E+00
  0.00000000E+00  0.00000000E+00  0.00000000E+00
  0.00000000E+00  0.00000000E+00  0.00000000E+00
  0.00000000E+00  0.00000000E+00  0.00000000E+00
  0.00000000E+00  0.00000000E+00  0.00000000E+00
  0.00000000E+00  0.00000000E+00  0.00000000E+00
  0.00000000E+00  0.00000000E+00  0.00000000E+00
  0.00000000E+00  0.00000000E+00  0.00000000E+00
  0.00000000E+00  0.00000000E+00  0.00000000E+00
  0.00000000E+00  0.00000000E+00  0.00000000E+00
  0.00000000E+00  0.00000000E+00  0.00000000E+00
  0.00000000E+00  0.00000000E+00  0.00000000E+00
  0.00000000E+00  0.00000000E+00  0.00000000E+00
  0.00000000E+00  0.00000000E+00  0.00000000E+00
  0.00000000E+00  0.00000000E+00  0.00000000E+00
  0.00000000E+00  0.00000000E+00  0.00000000E+00
  0.00000000E+00  0.00000000E+00  0.00000000E+00
  0.00000000E+00  0.00000000E+00  0.00000000E+00
  0.00000000E+00  0.00000000E+00  0.00000000E+00
  0.00000000E+00  0.00000000E+00  0.00000000E+00
  0.00000000E+00  0.00000000E+00  0.00000000E+00
  0.00000000E+00  0.00000000E+00  0.00000000E+00
  0.00000000E+00  0.00000000E+00  0.00000000E+00
  0.00000000E+00  0.00000000E+00  0.00000000E+00
  0.00000000E+00  0.00000000E+00  0.00000000E+00
  0.00000000E+00  0.00000000E+00  0.00000000E+00
  0.00000000E+00  0.00000000E+00  0.00000000E+00
  0.00000000E+00  0.00000000E+00  0.00000000E+00
  0.00000000E+00  0.00000000E+00  0.00000000E+00
  0.00000000E+00  0.00000000E+00  0.00000000E+00
  0.00000000E+00  0.00000000E+00  0.00000000E+00
  0.00000000E+00  0.00000000E+00  0.00000000E+00
  0.00000000E+00  0.00000000E+00  0.00000000E+00
  0.00000000E+00  0.00000000E+00  0.00000000E+00
  0.00000000E+00  0.00000000E+00  0.00000000E+00
  0.00000000E+00  0.00000000E+00  0.00000000E+00
  0.00000000E+00  0.00000000E+00  0.00000000E+00
  0.00000000E+00  0.00000000E+00  0.00000000E+00
  0.00000000E+00  0.00000000E+00  0.00000000E+00
  0.00000000E+00  0.00000000E+00  0.00000000E+00
  0.00000000E+00  0.00000000E+00  0.00000000E+00
  0.00000000E+00  0.00000000E+00  0.00000000E+00
  0.00000000E+00  0.00000000E+00  0.00000000E+00
  0.00000000E+00  0.00000000E+00  0.00000000E+00
  0.00000000E+00  0.00000000E+00  0.00000000E+00
  0.00000000E+00  0.00000000E+00  0.00000000E+00
  0.00000000E+00  0.00000000E+00  0.00000000E+00
  0.00000000E+00  0.00000000E+00  0.00000000E+00
  0.00000000E+00  0.00000000E+00  0.00000000E+00
  0.00000000E+00  0.00000000E+00  0.00000000E+00
  0.00000000E+00  0.00000000E+00  0.00000000E+00
  0.00000000E+00  0.00000000E+00  0.00000000E+00
  0.00000000E+00  0.00000000E+00  0.00000000E+00
  0.00000000E+00  0.00000000E+00  0.00000000E+00
  0.00000000E+00  0.00000000E+00  0.00000000E+00
  0.00000000E+00  0.00000000E+00  0.00000000E+00
  0.00000000E+00  0.00000000E+00  0.00000000E+00
  0.00000000E+00  0.00000000E+00  0.00000000E+00
  0.00000000E+00  0.00000000E+00  0.00000000E+00
  0.00000000E+00  0.00000000E+00  0.00000000E+00
  0.00000000E+00  0.00000000E+00  0.00000000E+00
