ortho_FA0750MA0125Cs0125                
   1.00000000000000     
    11.5950155019173486   -0.2615091383036284    0.1734627303901184
    -0.2481703227301697    9.2940667907932930   -0.1072661193996506
     0.2886684429113764   -0.1869156473275282   19.1995963530835532
   Pb   I    Cs   C    N    H 
     8    24     1     7    13    36
Direct
  0.1784377219506375  0.1040894909572386  0.4358890079245465
  0.1724285009917505  0.6182523510436168  0.4330191699643652
  0.8700322720416612  0.3428716941535454  0.5565692314917908
  0.8605632746656012  0.8528172099922290  0.5602600673851147
  0.3598018643879105  0.3749410752388740  0.9306825317001649
  0.3528862947882220  0.8765414288980337  0.9386746469800609
  0.6527803817562043  0.1375894664543682  0.0569610973329385
  0.6435936253963583  0.6512702915751039  0.0587563058766724
  0.1870781877857355  0.1267772713683713  0.9885924497835616
  0.1851875388398649  0.6089154640386137  0.9927478075832037
  0.8194993685915197  0.4125292466175952  0.0037666554588345
  0.8253726015486121  0.8977515940690320  0.9967164771177978
  0.3445907542547825  0.3854951727321691  0.4834775281131505
  0.3459167480093688  0.8679925743852696  0.4906990004178105
  0.6939482152759104  0.0863421046143164  0.4990387799988274
  0.6994425675420475  0.5892927164730225  0.4986998087258639
  0.2928361046956250  0.0733180330874430  0.2893817438374754
  0.2993272763480877  0.6080581538767330  0.2891781974119007
  0.7508709124569893  0.3235756427930720  0.7024861527244151
  0.7451077825353286  0.8365645458479991  0.7117508129113164
  0.2392569692910360  0.3547370393954166  0.7908352912804822
  0.2453397442495267  0.8613015936159839  0.7929927362177244
  0.7632131361947023  0.1214550928326271  0.2052514775831125
  0.7531369931539379  0.6323910468649995  0.2036985151688678
  0.0535339385772394  0.1101611872251661  0.5982704799965357
  0.0410011680457398  0.6142045387365105  0.5986834014743199
  0.9955281558897875  0.3435655036107753  0.3919933308541456
  0.9778717662093782  0.8553221183808264  0.4009749212226282
  0.4643445549677044  0.3801499225225138  0.0973555804697428
  0.4584522272286824  0.8905889205512141  0.1037286924947895
  0.5512834840823734  0.1275484637772880  0.8973318626990299
  0.5448689946784985  0.6420051286753530  0.8910250062864608
  0.5682188402122124  0.8691528682020937  0.3286760716859416
  0.0195277571869092  0.8601635925767990  0.1698302072867943
  0.4299753112549284  0.6199147443582257  0.6813815431472757
  0.0623578141437332  0.3610165774829358  0.1843390205384230
  0.5864167717620746  0.3934328608204718  0.3382263241326950
  0.4214341214834296  0.1174056968215194  0.6743257847495453
  0.9185957539571039  0.1211989152508607  0.8315599274474855
  0.9663698378344612  0.6309593033464811  0.8295164081282409
  0.0698407276320877  0.8140451446179054  0.2247223725185969
  0.0720270655462657  0.8883707644399470  0.1097844859732496
  0.5278974761640367  0.5728887399556769  0.6562845137009602
  0.3321869897004443  0.6118851461173279  0.6486953850536440
  0.1602336580014659  0.2987529737903595  0.1722337931081414
  0.0236387609739276  0.4644515252046557  0.1472119629602515
  0.6938212616793966  0.3604189643094252  0.3462670245529907
  0.5228852217495071  0.3509424741539652  0.2856159273361873
  0.4910241935507311  0.0514127697310606  0.7141311077089129
  0.4513109511238783  0.1726486343117218  0.6136965792757323
  0.9747754930157043  0.0366161790322480  0.7883722420516563
  0.9675790085399693  0.2260314946413249  0.8688463313299947
  0.8431131280978226  0.5785226551774347  0.8314246943499678
  0.9267003881750019  0.8756255845958383  0.1739524123586148
  0.0231317709054789  0.8022519535751512  0.2704812253804251
  0.1564172142032562  0.7975919968161270  0.2269368048146886
  0.1583515992245077  0.8773990679568660  0.1007247981293588
  0.0238875681894024  0.9176798176069595  0.0689014833244209
  0.4288837143011491  0.6701107796976796  0.7334377124233947
  0.6014849040571835  0.5916209098537715  0.6836836802352071
  0.5388942595076075  0.5347137122473730  0.6062492542108837
  0.3235404181668036  0.5623331519746796  0.6008027618193625
  0.2601794305656662  0.6490284366098417  0.6734697652337321
  0.0087028387709489  0.3234303788672441  0.2287274139532644
  0.1883516777862643  0.2262334018993616  0.2071475184414835
  0.2173107372111567  0.3295829552789883  0.1330856220622423
  0.0681345808380591  0.5038777707383923  0.1039767056930424
  0.9438434714047937  0.5031736219678633  0.1592367359606807
  0.5464383495847679  0.4598543466729722  0.3790190698071936
  0.7369491132252560  0.4020935332354954  0.3883129721343422
  0.7367478601652502  0.2992574010191955  0.3095110006378762
  0.5551199913528880  0.2912567635067200  0.2448331722150578
  0.4408217235582841  0.3862793668187832  0.2829858164072525
  0.3327961834083356  0.1280767972559581  0.6939917542327459
  0.4581700924022372  0.0116683284617859  0.7602200770057818
  0.5768629796279531  0.0396938130965121  0.7024451403899361
  0.5308558287005689  0.1590031965065939  0.5898859713335030
  0.3915151732071044  0.2201702988143601  0.5847956564480783
  0.8249491886346375  0.1029275150063605  0.8365523413766630
  0.9275235232437843  0.9634494476332102  0.7586035391100234
  0.0631572859515418  0.0401136577649590  0.7831589388185605
  0.0549947237213457  0.2502752383753745  0.8643887792298786
  0.9203900153084593  0.2784390881202852  0.9067945995320583
  0.7897240758113067  0.6596395704791609  0.8184625110441840
  0.8172048156594907  0.5411115887382936  0.8805070235469156
  0.8269615122169454  0.4950365503808639  0.7946932579275728
  0.9776688415362922  0.7199583475376558  0.8673823145594239
  0.0209787774648628  0.5433781269793792  0.8425509412536264
  0.9895097918130606  0.6673595678199360  0.7767490919982973
 
  0.00000000E+00  0.00000000E+00  0.00000000E+00
  0.00000000E+00  0.00000000E+00  0.00000000E+00
  0.00000000E+00  0.00000000E+00  0.00000000E+00
  0.00000000E+00  0.00000000E+00  0.00000000E+00
  0.00000000E+00  0.00000000E+00  0.00000000E+00
  0.00000000E+00  0.00000000E+00  0.00000000E+00
  0.00000000E+00  0.00000000E+00  0.00000000E+00
  0.00000000E+00  0.00000000E+00  0.00000000E+00
  0.00000000E+00  0.00000000E+00  0.00000000E+00
  0.00000000E+00  0.00000000E+00  0.00000000E+00
  0.00000000E+00  0.00000000E+00  0.00000000E+00
  0.00000000E+00  0.00000000E+00  0.00000000E+00
  0.00000000E+00  0.00000000E+00  0.00000000E+00
  0.00000000E+00  0.00000000E+00  0.00000000E+00
  0.00000000E+00  0.00000000E+00  0.00000000E+00
  0.00000000E+00  0.00000000E+00  0.00000000E+00
  0.00000000E+00  0.00000000E+00  0.00000000E+00
  0.00000000E+00  0.00000000E+00  0.00000000E+00
  0.00000000E+00  0.00000000E+00  0.00000000E+00
  0.00000000E+00  0.00000000E+00  0.00000000E+00
  0.00000000E+00  0.00000000E+00  0.00000000E+00
  0.00000000E+00  0.00000000E+00  0.00000000E+00
  0.00000000E+00  0.00000000E+00  0.00000000E+00
  0.00000000E+00  0.00000000E+00  0.00000000E+00
  0.00000000E+00  0.00000000E+00  0.00000000E+00
  0.00000000E+00  0.00000000E+00  0.00000000E+00
  0.00000000E+00  0.00000000E+00  0.00000000E+00
  0.00000000E+00  0.00000000E+00  0.00000000E+00
  0.00000000E+00  0.00000000E+00  0.00000000E+00
  0.00000000E+00  0.00000000E+00  0.00000000E+00
  0.00000000E+00  0.00000000E+00  0.00000000E+00
  0.00000000E+00  0.00000000E+00  0.00000000E+00
  0.00000000E+00  0.00000000E+00  0.00000000E+00
  0.00000000E+00  0.00000000E+00  0.00000000E+00
  0.00000000E+00  0.00000000E+00  0.00000000E+00
  0.00000000E+00  0.00000000E+00  0.00000000E+00
  0.00000000E+00  0.00000000E+00  0.00000000E+00
  0.00000000E+00  0.00000000E+00  0.00000000E+00
  0.00000000E+00  0.00000000E+00  0.00000000E+00
  0.00000000E+00  0.00000000E+00  0.00000000E+00
  0.00000000E+00  0.00000000E+00  0.00000000E+00
  0.00000000E+00  0.00000000E+00  0.00000000E+00
  0.00000000E+00  0.00000000E+00  0.00000000E+00
  0.00000000E+00  0.00000000E+00  0.00000000E+00
  0.00000000E+00  0.00000000E+00  0.00000000E+00
  0.00000000E+00  0.00000000E+00  0.00000000E+00
  0.00000000E+00  0.00000000E+00  0.00000000E+00
  0.00000000E+00  0.00000000E+00  0.00000000E+00
  0.00000000E+00  0.00000000E+00  0.00000000E+00
  0.00000000E+00  0.00000000E+00  0.00000000E+00
  0.00000000E+00  0.00000000E+00  0.00000000E+00
  0.00000000E+00  0.00000000E+00  0.00000000E+00
  0.00000000E+00  0.00000000E+00  0.00000000E+00
  0.00000000E+00  0.00000000E+00  0.00000000E+00
  0.00000000E+00  0.00000000E+00  0.00000000E+00
  0.00000000E+00  0.00000000E+00  0.00000000E+00
  0.00000000E+00  0.00000000E+00  0.00000000E+00
  0.00000000E+00  0.00000000E+00  0.00000000E+00
  0.00000000E+00  0.00000000E+00  0.00000000E+00
  0.00000000E+00  0.00000000E+00  0.00000000E+00
  0.00000000E+00  0.00000000E+00  0.00000000E+00
  0.00000000E+00  0.00000000E+00  0.00000000E+00
  0.00000000E+00  0.00000000E+00  0.00000000E+00
  0.00000000E+00  0.00000000E+00  0.00000000E+00
  0.00000000E+00  0.00000000E+00  0.00000000E+00
  0.00000000E+00  0.00000000E+00  0.00000000E+00
  0.00000000E+00  0.00000000E+00  0.00000000E+00
  0.00000000E+00  0.00000000E+00  0.00000000E+00
  0.00000000E+00  0.00000000E+00  0.00000000E+00
  0.00000000E+00  0.00000000E+00  0.00000000E+00
  0.00000000E+00  0.00000000E+00  0.00000000E+00
  0.00000000E+00  0.00000000E+00  0.00000000E+00
  0.00000000E+00  0.00000000E+00  0.00000000E+00
  0.00000000E+00  0.00000000E+00  0.00000000E+00
  0.00000000E+00  0.00000000E+00  0.00000000E+00
  0.00000000E+00  0.00000000E+00  0.00000000E+00
  0.00000000E+00  0.00000000E+00  0.00000000E+00
  0.00000000E+00  0.00000000E+00  0.00000000E+00
  0.00000000E+00  0.00000000E+00  0.00000000E+00
  0.00000000E+00  0.00000000E+00  0.00000000E+00
  0.00000000E+00  0.00000000E+00  0.00000000E+00
  0.00000000E+00  0.00000000E+00  0.00000000E+00
  0.00000000E+00  0.00000000E+00  0.00000000E+00
  0.00000000E+00  0.00000000E+00  0.00000000E+00
  0.00000000E+00  0.00000000E+00  0.00000000E+00
  0.00000000E+00  0.00000000E+00  0.00000000E+00
  0.00000000E+00  0.00000000E+00  0.00000000E+00
  0.00000000E+00  0.00000000E+00  0.00000000E+00
  0.00000000E+00  0.00000000E+00  0.00000000E+00
