ortho_FA0750MA0250Cs0000                
   1.00000000000000     
    11.3362620269007621   -0.2812447376347157    0.0651511080514820
    -0.2534940008810969    9.4326688401935623   -0.1678920979695373
     0.1089669297766214   -0.2924212405975597   19.2133908429770486
   Pb   I    Cs   C    N    H 
     8    24     0     8    14    42
Direct
  0.1605902671236885  0.1375516664877952  0.4311125723783066
  0.1542514079879601  0.6404438093193722  0.4289616842269950
  0.8679768618532767  0.3576505750448273  0.5566482381456287
  0.8651718814332985  0.8581058962712221  0.5569767381947287
  0.3534098706422123  0.3743120736295326  0.9499895544549528
  0.3563584689455751  0.8637348183315060  0.9451764968248475
  0.6649460408332366  0.1335681699465534  0.0617756671770165
  0.6667956905028564  0.6315486784534268  0.0572505596736835
  0.1767966695506668  0.1064975083226889  0.9887349504969777
  0.1687932278582039  0.6191258424864903  0.9936187527395350
  0.8422671755696042  0.3850673653339930  0.0045956919922802
  0.8302866138774393  0.8933976584480400  0.9980547341293186
  0.3230440077938198  0.4037765420448890  0.4871415247886536
  0.3243888616312429  0.9020471272005428  0.4880877244147452
  0.6881868543298839  0.0983309755905480  0.5059866281552821
  0.6778612193211180  0.5935635330568096  0.5169786443097663
  0.2989968746321072  0.1443329235283571  0.2952230922908072
  0.2735567807563098  0.6407306502245781  0.2853212391792784
  0.7429662554721291  0.3309613201067855  0.7007789280495954
  0.7384771833178010  0.8479239170044774  0.7021333897662715
  0.2666754177950458  0.3611019263814740  0.7983224000512554
  0.2505707955832880  0.8440706673445505  0.7967058377235490
  0.8067384461711590  0.1127846739787580  0.2015364455913421
  0.8001476901160701  0.6393684925544696  0.2045504446150382
  0.0484798311049368  0.1236899707755480  0.6058670671558566
  0.0493455166490626  0.6291803901816457  0.6010118263070772
  0.9697380573754775  0.3713505158984942  0.3887758660331291
  0.9665708417751213  0.8723718461865519  0.3911350034757302
  0.4818318644634448  0.3799528178781046  0.1079018669475382
  0.4791440439668113  0.8711187532874032  0.1037935538465237
  0.5365432400282715  0.1328264535323109  0.9052447852384277
  0.5481018835228338  0.6204835399556805  0.9018475050319881
  0.4064028816199377  0.1206655846580577  0.6658553590468889
  0.5573391445700219  0.8580853272261789  0.3428800471894809
  0.9352397759304263  0.1216899081321321  0.8502044721882046
  0.5637899826216475  0.3638033904729033  0.3438682479127414
  0.9113122120526831  0.6085268245005724  0.8120397712551293
  0.4070516230272996  0.6100348294471036  0.6754137104698819
  0.1209904963550619  0.9327239732783771  0.1761988433052949
  0.1419632287144679  0.3628737380121884  0.1578269128523154
  0.4700592708175498  0.0326269875132216  0.6989415881937753
  0.4469210593574051  0.2071219369969436  0.6180648763810047
  0.6435317280264287  0.7762271850597542  0.3571001356495365
  0.5522711507644995  0.9334595659574438  0.2869269566550653
  0.0254359220780103  0.1084430972888908  0.8072803250262343
  0.8243997037516425  0.1028049124487276  0.8318739853956886
  0.6548070801928102  0.2837416496416544  0.3465715781002221
  0.5424915483848638  0.4476061867792155  0.2927416968133053
  0.9720840372867814  0.4948864847409458  0.8019382885100118
  0.9527110617131241  0.7318537038956940  0.8371545279569848
  0.5000794983532388  0.5506868365287457  0.6990196155584119
  0.4069209880347345  0.6872611977046070  0.6199642811995163
  0.0410758226263777  0.8436596525210102  0.1297249046100692
  0.0140372371337625  0.3887900844490861  0.1638447745314830
  0.3128146154830642  0.1224363611441225  0.6797626393348326
  0.4282959121928837  0.9700664154460050  0.7353850812745173
  0.5582969880192149  0.0198503169774584  0.6894267677060606
  0.5319942585552501  0.2038977688840649  0.5993236989999396
  0.3904658748135033  0.2661680648254725  0.5911140600448574
  0.4843117870052983  0.8650770176983930  0.3804693306446888
  0.6432763031054475  0.7241082077829896  0.4031793833765059
  0.7128294974202650  0.7612561256296485  0.3233635481103319
  0.6182039443528747  0.9377087049477579  0.2500652672518104
  0.4793854901137160  0.9921211307922033  0.2802192827392998
  0.9546274759785899  0.1492619393425034  0.9047193891803811
  0.1095427096387932  0.1271734725754843  0.8253830726569819
  0.0163212847846290  0.0887987477249405  0.7547647270213749
  0.7997914462979511  0.0722419795207287  0.7819628517756478
  0.7576533454827848  0.1162172878512251  0.8674880019717712
  0.5012882744474515  0.3623182101839783  0.3877348149332543
  0.6670285461544037  0.2258617873302100  0.3900835681151029
  0.7143321832228489  0.2728851463661788  0.3063425950980129
  0.5964687072868009  0.4563299451640825  0.2499558817379290
  0.4644492502016372  0.4990296817905026  0.2924151696783971
  0.8180180485979920  0.5988708057361967  0.7980336342980775
  0.9288527608146139  0.4105416637253090  0.7764930043728345
  0.0611586448434143  0.4908231921423553  0.8105276132481805
  0.0411214503607789  0.7550141681361837  0.8454648036950519
  0.8964585712083587  0.8122914047868396  0.8418106032187658
  0.3244867675513299  0.5938390901388484  0.7046977840221648
  0.4909671731618407  0.4917978456829838  0.7425555179736343
  0.5818111829130602  0.5600652823927056  0.6761965443659377
  0.4795532622520097  0.6990497594499913  0.5881316134221900
  0.3301196141219281  0.7260959751330706  0.6030905404537258
  0.9932234509542458  0.9029874630594255  0.0962016671640957
  0.9774746682677288  0.7842488110476284  0.1579827270971114
  0.0873007558934629  0.7737596536408829  0.0978329650505097
  0.0675451684207627  0.0038983770455959  0.2078401749462572
  0.1678698590708574  0.8635879583663364  0.2099428933491746
  0.1841822751687271  0.9934914662561357  0.1438672996299256
  0.9765707303668750  0.4067000166367579  0.1156559746732604
  0.9959824182599026  0.4748215167810134  0.1964080022231621
  0.9642267317154330  0.3016431516532579  0.1831419337644128
  0.1888032981260876  0.4577968115544800  0.1380459413486392
  0.1757268586837972  0.3396855821119203  0.2091595857842057
  0.1530574621336324  0.2730437877086663  0.1211799647743000
 
  0.00000000E+00  0.00000000E+00  0.00000000E+00
  0.00000000E+00  0.00000000E+00  0.00000000E+00
  0.00000000E+00  0.00000000E+00  0.00000000E+00
  0.00000000E+00  0.00000000E+00  0.00000000E+00
  0.00000000E+00  0.00000000E+00  0.00000000E+00
  0.00000000E+00  0.00000000E+00  0.00000000E+00
  0.00000000E+00  0.00000000E+00  0.00000000E+00
  0.00000000E+00  0.00000000E+00  0.00000000E+00
  0.00000000E+00  0.00000000E+00  0.00000000E+00
  0.00000000E+00  0.00000000E+00  0.00000000E+00
  0.00000000E+00  0.00000000E+00  0.00000000E+00
  0.00000000E+00  0.00000000E+00  0.00000000E+00
  0.00000000E+00  0.00000000E+00  0.00000000E+00
  0.00000000E+00  0.00000000E+00  0.00000000E+00
  0.00000000E+00  0.00000000E+00  0.00000000E+00
  0.00000000E+00  0.00000000E+00  0.00000000E+00
  0.00000000E+00  0.00000000E+00  0.00000000E+00
  0.00000000E+00  0.00000000E+00  0.00000000E+00
  0.00000000E+00  0.00000000E+00  0.00000000E+00
  0.00000000E+00  0.00000000E+00  0.00000000E+00
  0.00000000E+00  0.00000000E+00  0.00000000E+00
  0.00000000E+00  0.00000000E+00  0.00000000E+00
  0.00000000E+00  0.00000000E+00  0.00000000E+00
  0.00000000E+00  0.00000000E+00  0.00000000E+00
  0.00000000E+00  0.00000000E+00  0.00000000E+00
  0.00000000E+00  0.00000000E+00  0.00000000E+00
  0.00000000E+00  0.00000000E+00  0.00000000E+00
  0.00000000E+00  0.00000000E+00  0.00000000E+00
  0.00000000E+00  0.00000000E+00  0.00000000E+00
  0.00000000E+00  0.00000000E+00  0.00000000E+00
  0.00000000E+00  0.00000000E+00  0.00000000E+00
  0.00000000E+00  0.00000000E+00  0.00000000E+00
  0.00000000E+00  0.00000000E+00  0.00000000E+00
  0.00000000E+00  0.00000000E+00  0.00000000E+00
  0.00000000E+00  0.00000000E+00  0.00000000E+00
  0.00000000E+00  0.00000000E+00  0.00000000E+00
  0.00000000E+00  0.00000000E+00  0.00000000E+00
  0.00000000E+00  0.00000000E+00  0.00000000E+00
  0.00000000E+00  0.00000000E+00  0.00000000E+00
  0.00000000E+00  0.00000000E+00  0.00000000E+00
  0.00000000E+00  0.00000000E+00  0.00000000E+00
  0.00000000E+00  0.00000000E+00  0.00000000E+00
  0.00000000E+00  0.00000000E+00  0.00000000E+00
  0.00000000E+00  0.00000000E+00  0.00000000E+00
  0.00000000E+00  0.00000000E+00  0.00000000E+00
  0.00000000E+00  0.00000000E+00  0.00000000E+00
  0.00000000E+00  0.00000000E+00  0.00000000E+00
  0.00000000E+00  0.00000000E+00  0.00000000E+00
  0.00000000E+00  0.00000000E+00  0.00000000E+00
  0.00000000E+00  0.00000000E+00  0.00000000E+00
  0.00000000E+00  0.00000000E+00  0.00000000E+00
  0.00000000E+00  0.00000000E+00  0.00000000E+00
  0.00000000E+00  0.00000000E+00  0.00000000E+00
  0.00000000E+00  0.00000000E+00  0.00000000E+00
  0.00000000E+00  0.00000000E+00  0.00000000E+00
  0.00000000E+00  0.00000000E+00  0.00000000E+00
  0.00000000E+00  0.00000000E+00  0.00000000E+00
  0.00000000E+00  0.00000000E+00  0.00000000E+00
  0.00000000E+00  0.00000000E+00  0.00000000E+00
  0.00000000E+00  0.00000000E+00  0.00000000E+00
  0.00000000E+00  0.00000000E+00  0.00000000E+00
  0.00000000E+00  0.00000000E+00  0.00000000E+00
  0.00000000E+00  0.00000000E+00  0.00000000E+00
  0.00000000E+00  0.00000000E+00  0.00000000E+00
  0.00000000E+00  0.00000000E+00  0.00000000E+00
  0.00000000E+00  0.00000000E+00  0.00000000E+00
  0.00000000E+00  0.00000000E+00  0.00000000E+00
  0.00000000E+00  0.00000000E+00  0.00000000E+00
  0.00000000E+00  0.00000000E+00  0.00000000E+00
  0.00000000E+00  0.00000000E+00  0.00000000E+00
  0.00000000E+00  0.00000000E+00  0.00000000E+00
  0.00000000E+00  0.00000000E+00  0.00000000E+00
  0.00000000E+00  0.00000000E+00  0.00000000E+00
  0.00000000E+00  0.00000000E+00  0.00000000E+00
  0.00000000E+00  0.00000000E+00  0.00000000E+00
  0.00000000E+00  0.00000000E+00  0.00000000E+00
  0.00000000E+00  0.00000000E+00  0.00000000E+00
  0.00000000E+00  0.00000000E+00  0.00000000E+00
  0.00000000E+00  0.00000000E+00  0.00000000E+00
  0.00000000E+00  0.00000000E+00  0.00000000E+00
  0.00000000E+00  0.00000000E+00  0.00000000E+00
  0.00000000E+00  0.00000000E+00  0.00000000E+00
  0.00000000E+00  0.00000000E+00  0.00000000E+00
  0.00000000E+00  0.00000000E+00  0.00000000E+00
  0.00000000E+00  0.00000000E+00  0.00000000E+00
  0.00000000E+00  0.00000000E+00  0.00000000E+00
  0.00000000E+00  0.00000000E+00  0.00000000E+00
  0.00000000E+00  0.00000000E+00  0.00000000E+00
  0.00000000E+00  0.00000000E+00  0.00000000E+00
  0.00000000E+00  0.00000000E+00  0.00000000E+00
  0.00000000E+00  0.00000000E+00  0.00000000E+00
  0.00000000E+00  0.00000000E+00  0.00000000E+00
  0.00000000E+00  0.00000000E+00  0.00000000E+00
  0.00000000E+00  0.00000000E+00  0.00000000E+00
  0.00000000E+00  0.00000000E+00  0.00000000E+00
  0.00000000E+00  0.00000000E+00  0.00000000E+00
