cubic_FA0125MA0250Cs0625kicked          
   1.00000000000000     
    12.7803130934099176   -0.0583225677234104    0.0464721724328073
    -0.0590681758939229   12.7364479065392295   -0.0611720940354004
     0.0469612553752658   -0.0604596825053497   12.7482626203456793
   Cs   I    Pb   C    N    H 
     5    24     8     3     4    17
Direct
  0.2514639605141162  0.7262443212366166  0.2500632485269987
  0.2359329450178635  0.7385214958730224  0.7614371403719487
  0.7617005540695146  0.2531510357760887  0.2475752826728573
  0.7674194998657322  0.2561033234531968  0.7350554162011539
  0.7533007431400530  0.7490890547679644  0.2496301796925774
  0.0118552189181674  0.0142813454193642  0.2517073323493452
 -0.0070976362725963 -0.0008533415677046  0.7514455474471179
  0.9877618280054284  0.4904412486315112  0.2484312043046627
  0.0054665931855103  0.5101634605427033  0.7485367101128491
  0.5059484193762778  0.9810341179542181  0.2554818788162710
  0.5288528603728625  0.9935751827585629  0.7554737689604760
  0.5007403421339824  0.5076917101087333  0.2507304191138465
  0.5203924550472366  0.5098856725810770  0.7509882073517620
  0.9796375079134311  0.2546160302018681  0.9785345907497784
  0.0025507140000260  0.2510608543439069  0.5111544155738839
  0.0209229682444895  0.7546026463771224  0.0168328823160255
  0.0190360880111789  0.7511322692466534  0.4778371898959355
  0.5105877568726012  0.2514719461957602  0.0138157659103264
  0.5251212505841116  0.2471802894015954  0.4974079488468807
  0.4785381212713407  0.7514329021028205  0.0017994288442933
  0.5106366367354641  0.7479214906972768  0.4931071361773374
  0.2560837023652891  0.5174935281227730  0.4981987435672532
  0.2499440502024927  0.5020065988903831 -0.0067499273904117
  0.2597044428975865  0.0071253497267462  0.5264433302192782
  0.2537568314125858  0.0143878371457107  0.9774901477618931
  0.7557574865089062  0.5031591475551216  0.4969681633050670
  0.7497856799628790  0.5147285702662893  0.0123392839975415
  0.7586705874877142  0.9898130247259720  0.4988115611782761
  0.7529797273389411  0.9953043808407744  0.0254363292765060
  0.5045620547315973 -0.0000121120350743  0.0047639806307236
  0.5093413196361125  0.9980276136478746  0.5037512883515096
  0.5021637261229026  0.5031533607906447  0.0021062456689132
  0.5042300760508259  0.4973540297296837  0.4986655416703575
  0.0011939941375103  0.0044870665250159  0.0037114372846144
  0.0056795584234602 -0.0017433437354752  0.4992096821817154
  0.9972640860730703  0.5050332517536361  0.9962114453931346
  0.0059277274101142  0.5013508720812750  0.5003201264598325
  0.2476749575228343  0.2554990488497382  0.2679307114290150
  0.7862860289407505  0.7501973320377616  0.7657280763884341
  0.2738687707985011  0.2830172341213383  0.7456924347750554
  0.3438558178783611  0.2212463168349279  0.2564620280933236
  0.1944821552119145  0.3024978532504507  0.1944350090230297
  0.6781094494713704  0.7507107706707580  0.7225787501810212
  0.2203978903426192  0.1786286915458310  0.7512511522434929
  0.2087191813157586  0.2435712526936280  0.3436619762097692
  0.3811108798638254  0.1877212816448004  0.3181238618537563
  0.3859420836844856  0.2300251480309947  0.1879546618226217
  0.2263323687007707  0.3224972829303281  0.1232829505675508
  0.1224613944210559  0.3333459607607482  0.2116759573587479
  0.6770181376777691  0.7516126161543794  0.6412347311189047
  0.6365920115499473  0.8169738276948997  0.7470873706490254
  0.6351301774797634  0.6841285341146210  0.7444890616904576
  0.8280490318757477  0.8209951178988595  0.7396839671521316
  0.7812860752868648  0.7494982196714797  0.8515983846009407
  0.8266405758461205  0.6797430971534224  0.7372293658559097
  0.1396850416139379  0.1843885542892391  0.7497937804138137
  0.2382390260604912  0.1380936546718623  0.8200253489059215
  0.2407720376511161  0.1298937472986943  0.6877338259744370
  0.2468336730386598  0.3323106009268571  0.8112593552722658
  0.3585200699935466  0.2716053567758642  0.7508777037743315
  0.2547756808242305  0.3197965374053949  0.6709128328746243
 
  0.00000000E+00  0.00000000E+00  0.00000000E+00
  0.00000000E+00  0.00000000E+00  0.00000000E+00
  0.00000000E+00  0.00000000E+00  0.00000000E+00
  0.00000000E+00  0.00000000E+00  0.00000000E+00
  0.00000000E+00  0.00000000E+00  0.00000000E+00
  0.00000000E+00  0.00000000E+00  0.00000000E+00
  0.00000000E+00  0.00000000E+00  0.00000000E+00
  0.00000000E+00  0.00000000E+00  0.00000000E+00
  0.00000000E+00  0.00000000E+00  0.00000000E+00
  0.00000000E+00  0.00000000E+00  0.00000000E+00
  0.00000000E+00  0.00000000E+00  0.00000000E+00
  0.00000000E+00  0.00000000E+00  0.00000000E+00
  0.00000000E+00  0.00000000E+00  0.00000000E+00
  0.00000000E+00  0.00000000E+00  0.00000000E+00
  0.00000000E+00  0.00000000E+00  0.00000000E+00
  0.00000000E+00  0.00000000E+00  0.00000000E+00
  0.00000000E+00  0.00000000E+00  0.00000000E+00
  0.00000000E+00  0.00000000E+00  0.00000000E+00
  0.00000000E+00  0.00000000E+00  0.00000000E+00
  0.00000000E+00  0.00000000E+00  0.00000000E+00
  0.00000000E+00  0.00000000E+00  0.00000000E+00
  0.00000000E+00  0.00000000E+00  0.00000000E+00
  0.00000000E+00  0.00000000E+00  0.00000000E+00
  0.00000000E+00  0.00000000E+00  0.00000000E+00
  0.00000000E+00  0.00000000E+00  0.00000000E+00
  0.00000000E+00  0.00000000E+00  0.00000000E+00
  0.00000000E+00  0.00000000E+00  0.00000000E+00
  0.00000000E+00  0.00000000E+00  0.00000000E+00
  0.00000000E+00  0.00000000E+00  0.00000000E+00
  0.00000000E+00  0.00000000E+00  0.00000000E+00
  0.00000000E+00  0.00000000E+00  0.00000000E+00
  0.00000000E+00  0.00000000E+00  0.00000000E+00
  0.00000000E+00  0.00000000E+00  0.00000000E+00
  0.00000000E+00  0.00000000E+00  0.00000000E+00
  0.00000000E+00  0.00000000E+00  0.00000000E+00
  0.00000000E+00  0.00000000E+00  0.00000000E+00
  0.00000000E+00  0.00000000E+00  0.00000000E+00
  0.00000000E+00  0.00000000E+00  0.00000000E+00
  0.00000000E+00  0.00000000E+00  0.00000000E+00
  0.00000000E+00  0.00000000E+00  0.00000000E+00
  0.00000000E+00  0.00000000E+00  0.00000000E+00
  0.00000000E+00  0.00000000E+00  0.00000000E+00
  0.00000000E+00  0.00000000E+00  0.00000000E+00
  0.00000000E+00  0.00000000E+00  0.00000000E+00
  0.00000000E+00  0.00000000E+00  0.00000000E+00
  0.00000000E+00  0.00000000E+00  0.00000000E+00
  0.00000000E+00  0.00000000E+00  0.00000000E+00
  0.00000000E+00  0.00000000E+00  0.00000000E+00
  0.00000000E+00  0.00000000E+00  0.00000000E+00
  0.00000000E+00  0.00000000E+00  0.00000000E+00
  0.00000000E+00  0.00000000E+00  0.00000000E+00
  0.00000000E+00  0.00000000E+00  0.00000000E+00
  0.00000000E+00  0.00000000E+00  0.00000000E+00
  0.00000000E+00  0.00000000E+00  0.00000000E+00
  0.00000000E+00  0.00000000E+00  0.00000000E+00
  0.00000000E+00  0.00000000E+00  0.00000000E+00
  0.00000000E+00  0.00000000E+00  0.00000000E+00
  0.00000000E+00  0.00000000E+00  0.00000000E+00
  0.00000000E+00  0.00000000E+00  0.00000000E+00
  0.00000000E+00  0.00000000E+00  0.00000000E+00
  0.00000000E+00  0.00000000E+00  0.00000000E+00
