hexa_FA0625MA0125Cs0250                 
   1.00000000000000     
    18.7370441703982031    0.0177082263692492   -0.0639601814516537
    -9.3544816185839093   14.6263725886820470    0.0084821882807869
    -0.0263079755917101   -0.0124267719629064    7.7462973560705084
   Pb   I    N    C    H    Cs
     8    24    11     6    31     2
Direct
  0.4932182080209741  0.5000339672360399  0.9377090705386546
  0.4952235965652217  0.9965844530140060  0.9376132481601781
  0.0078478122862048  0.5009346473186425  0.9456166716856087
  0.0042398620355732  0.9988582724486958  0.9410702011023414
  0.0042442006604237  0.9988855941703677  0.4363580349566551
  0.0074754549461554  0.5002322836986400  0.4400882012831829
  0.4950366534422175  0.9965607894367641  0.4390156262554067
  0.4933525015285539  0.4999941075673277  0.4391270109179088
  0.4152734656141364  0.0826907265297834  0.1868005119889333
  0.4115824099529062  0.5827479744780144  0.1868666973488987
  0.9272911041699551  0.0843224722395638  0.1874882360314278
  0.9331261995280837  0.5878289670372276  0.1922331275001547
  0.4002298155882319  0.3242100793334928  0.1874828702310173
  0.3994810317410691  0.8220552930233324  0.1869654666390033
  0.9250027665013068  0.3248797595215573  0.1917716616944455
  0.9252025308952773  0.8234753832121398  0.1881085549914197
  0.1674110579841379  0.0895751861737194  0.1910344070675480
  0.1731507215756230  0.5869546209849758  0.1996298544810464
  0.6591371824183567  0.0791072043074254  0.1906628036680682
  0.6571339218969076  0.5801609004599707  0.1905072945077776
  0.0895982831241523  0.4142520877978929  0.6964319440503316
  0.0880563348893245  0.9161611699826897  0.6904690843192566
  0.5772568600342440  0.4196955137560728  0.6897310300986870
  0.5794504698073860  0.9191544356131724  0.6895007051992899
  0.0889279493312949  0.1768338599570512  0.6900253218217587
  0.1002289032279753  0.6778778560413322  0.6948554085977272
  0.5870357281217484  0.1756144018121219  0.6894430005877635
  0.5805153606087841  0.6761470066294877  0.6896664937150080
  0.3281800366453326  0.4114085552139795  0.6856499229328362
  0.3309895010518616  0.9113308625181890  0.6860119447491102
  0.8452198374963836  0.4213824675245384  0.6927437698137562
  0.8401614566939506  0.9183588264065765  0.6863816647098617
  0.7215733005734080  0.3193233359666064  0.1867524723458951
  0.7226880569075208  0.8206071103611506  0.1865192447931106
  0.5971231504614541  0.3194802248820633  0.1870728929222946
  0.5981451766521726  0.8204581784491471  0.1871319450217599
  0.2772604012707283  0.1771966811482151  0.6870719232031584
  0.7756182074294364  0.1770825362111113  0.6870902777524396
  0.7780935609702881  0.6809826051207621  0.6870586226485168
  0.4026882839107876  0.1798885693319495  0.6864271688776975
  0.8990616444074657  0.1755419261795865  0.6866655957680139
  0.9016578776195233  0.6791198586595910  0.6867693202648196
  0.2768456344191583  0.6405849412737668  0.6793029061427105
  0.6799343547209279  0.3606747753065359  0.1867143699854897
  0.6808922242822478  0.8617351339202959  0.1866268789115308
  0.3199495396796647  0.1371228640787850  0.6867258735120526
  0.8163813713938051  0.1350000463516484  0.6865478818147805
  0.8189164705779278  0.6388356274086260  0.6868515899318113
  0.3648549505304159  0.6602572200166842  0.6847983089228216
  0.7171289371259736  0.4354795641645462  0.1864126323440704
  0.7180157308507157  0.9365089556554381  0.1863076965052354
  0.2837037619298329  0.0623372146391185  0.6866874939323108
  0.7783416952784936  0.0602145745219492  0.6859668669843427
  0.7809467535751179  0.5640636691995693  0.6867635330568694
  0.6926991029581018  0.2493377582717074  0.1871386515369054
  0.6940155917863818  0.7507051335106293  0.1870047859575455
  0.7863044301813381  0.3568184547504488  0.1865193115894786
  0.7873812504787855  0.8585068252732471  0.1863163073836254
  0.5699055859828135  0.3571566284139992  0.1870084330660646
  0.5711023415736671  0.8582749816094321  0.1870536630231764
  0.5559539078252028  0.2495378248244182  0.1871817650915598
  0.5569873413131171  0.7506770101817045  0.1872607685265816
  0.3051445601334425  0.2469946144099493  0.6868831159066267
  0.8050294101315338  0.2469742945813361  0.6877426397020072
  0.8075609235739883  0.7510367281216734  0.6870360124884843
  0.2125883223946937  0.1388926645467047  0.6872688681964854
  0.7107169585228758  0.1401032691046238  0.6869968207732462
  0.7132645448439541  0.6444015751622159  0.6871732852670633
  0.4315308236695437  0.1438271629870927  0.6864802859288655
  0.9260711476626503  0.1376230922510154  0.6865294374513887
  0.9279109072775688  0.6405505793649255  0.6869415574512312
  0.4425467913783438  0.2499478081723687  0.6867268762426130
  0.9402421796083094  0.2451086319602243  0.6875715904130025
  0.9433906748470784  0.7488483444437289  0.6870218456403301
  0.2629600205241293  0.6582218590892920  0.5618756621726260
  0.2667915925121503  0.6760104319283247  0.7729865000690982
  0.2307919389138040  0.5711790839174646  0.6966457997963843
  0.4097712201195415  0.7336855074107441  0.6667501369800659
  0.3755906620827738  0.6388588390750476  0.8102175099995303
  0.3714075849129189  0.6215969591167378  0.5813605303670297
  0.1737616788475316  0.3312008643451999  0.1861897017439554
  0.1764883055510433  0.8522630018873958  0.1859907007637150
 
  0.00000000E+00  0.00000000E+00  0.00000000E+00
  0.00000000E+00  0.00000000E+00  0.00000000E+00
  0.00000000E+00  0.00000000E+00  0.00000000E+00
  0.00000000E+00  0.00000000E+00  0.00000000E+00
  0.00000000E+00  0.00000000E+00  0.00000000E+00
  0.00000000E+00  0.00000000E+00  0.00000000E+00
  0.00000000E+00  0.00000000E+00  0.00000000E+00
  0.00000000E+00  0.00000000E+00  0.00000000E+00
  0.00000000E+00  0.00000000E+00  0.00000000E+00
  0.00000000E+00  0.00000000E+00  0.00000000E+00
  0.00000000E+00  0.00000000E+00  0.00000000E+00
  0.00000000E+00  0.00000000E+00  0.00000000E+00
  0.00000000E+00  0.00000000E+00  0.00000000E+00
  0.00000000E+00  0.00000000E+00  0.00000000E+00
  0.00000000E+00  0.00000000E+00  0.00000000E+00
  0.00000000E+00  0.00000000E+00  0.00000000E+00
  0.00000000E+00  0.00000000E+00  0.00000000E+00
  0.00000000E+00  0.00000000E+00  0.00000000E+00
  0.00000000E+00  0.00000000E+00  0.00000000E+00
  0.00000000E+00  0.00000000E+00  0.00000000E+00
  0.00000000E+00  0.00000000E+00  0.00000000E+00
  0.00000000E+00  0.00000000E+00  0.00000000E+00
  0.00000000E+00  0.00000000E+00  0.00000000E+00
  0.00000000E+00  0.00000000E+00  0.00000000E+00
  0.00000000E+00  0.00000000E+00  0.00000000E+00
  0.00000000E+00  0.00000000E+00  0.00000000E+00
  0.00000000E+00  0.00000000E+00  0.00000000E+00
  0.00000000E+00  0.00000000E+00  0.00000000E+00
  0.00000000E+00  0.00000000E+00  0.00000000E+00
  0.00000000E+00  0.00000000E+00  0.00000000E+00
  0.00000000E+00  0.00000000E+00  0.00000000E+00
  0.00000000E+00  0.00000000E+00  0.00000000E+00
  0.00000000E+00  0.00000000E+00  0.00000000E+00
  0.00000000E+00  0.00000000E+00  0.00000000E+00
  0.00000000E+00  0.00000000E+00  0.00000000E+00
  0.00000000E+00  0.00000000E+00  0.00000000E+00
  0.00000000E+00  0.00000000E+00  0.00000000E+00
  0.00000000E+00  0.00000000E+00  0.00000000E+00
  0.00000000E+00  0.00000000E+00  0.00000000E+00
  0.00000000E+00  0.00000000E+00  0.00000000E+00
  0.00000000E+00  0.00000000E+00  0.00000000E+00
  0.00000000E+00  0.00000000E+00  0.00000000E+00
  0.00000000E+00  0.00000000E+00  0.00000000E+00
  0.00000000E+00  0.00000000E+00  0.00000000E+00
  0.00000000E+00  0.00000000E+00  0.00000000E+00
  0.00000000E+00  0.00000000E+00  0.00000000E+00
  0.00000000E+00  0.00000000E+00  0.00000000E+00
  0.00000000E+00  0.00000000E+00  0.00000000E+00
  0.00000000E+00  0.00000000E+00  0.00000000E+00
  0.00000000E+00  0.00000000E+00  0.00000000E+00
  0.00000000E+00  0.00000000E+00  0.00000000E+00
  0.00000000E+00  0.00000000E+00  0.00000000E+00
  0.00000000E+00  0.00000000E+00  0.00000000E+00
  0.00000000E+00  0.00000000E+00  0.00000000E+00
  0.00000000E+00  0.00000000E+00  0.00000000E+00
  0.00000000E+00  0.00000000E+00  0.00000000E+00
  0.00000000E+00  0.00000000E+00  0.00000000E+00
  0.00000000E+00  0.00000000E+00  0.00000000E+00
  0.00000000E+00  0.00000000E+00  0.00000000E+00
  0.00000000E+00  0.00000000E+00  0.00000000E+00
  0.00000000E+00  0.00000000E+00  0.00000000E+00
  0.00000000E+00  0.00000000E+00  0.00000000E+00
  0.00000000E+00  0.00000000E+00  0.00000000E+00
  0.00000000E+00  0.00000000E+00  0.00000000E+00
  0.00000000E+00  0.00000000E+00  0.00000000E+00
  0.00000000E+00  0.00000000E+00  0.00000000E+00
  0.00000000E+00  0.00000000E+00  0.00000000E+00
  0.00000000E+00  0.00000000E+00  0.00000000E+00
  0.00000000E+00  0.00000000E+00  0.00000000E+00
  0.00000000E+00  0.00000000E+00  0.00000000E+00
  0.00000000E+00  0.00000000E+00  0.00000000E+00
  0.00000000E+00  0.00000000E+00  0.00000000E+00
  0.00000000E+00  0.00000000E+00  0.00000000E+00
  0.00000000E+00  0.00000000E+00  0.00000000E+00
  0.00000000E+00  0.00000000E+00  0.00000000E+00
  0.00000000E+00  0.00000000E+00  0.00000000E+00
  0.00000000E+00  0.00000000E+00  0.00000000E+00
  0.00000000E+00  0.00000000E+00  0.00000000E+00
  0.00000000E+00  0.00000000E+00  0.00000000E+00
  0.00000000E+00  0.00000000E+00  0.00000000E+00
  0.00000000E+00  0.00000000E+00  0.00000000E+00
  0.00000000E+00  0.00000000E+00  0.00000000E+00
