cubic_FA0625MA0125Cs0250                
   1.00000000000000     
    12.7680883223375830   -0.1678016261432304    0.3224555357707547
    -0.1671210326317080   12.7180474036573692   -0.1076260883912642
     0.3197826551961435   -0.1061264373172790   12.7430874830475496
   Cs   I    Pb   C    N    H 
     2    24     8     6    11    31
Direct
  0.2540682510118794  0.7300576232849116  0.2486758473438874
  0.7660581105891546  0.7307023009214098  0.2376275266262486
  0.0141279434256584  0.9729827822609837  0.2454550201291593
  0.9919124457015444  0.9908754777020400  0.7464960987868109
  0.0085880921786178  0.5167882434003346  0.2389705573345356
  0.0311016058074136  0.4869759099525817  0.7389137057406506
  0.4778270541150083  0.9846205459610563  0.2475750709449708
  0.4858678811246011  0.9799138083990561  0.7459027975955496
  0.5087315217038753  0.5118965839664784  0.2404239668973017
  0.5101987391488718  0.4685856285133265  0.7401218135393175
  0.9969399995955383  0.2439961309329341  0.0027949854732677
  0.9740530913693828  0.2477003756863584  0.4979842213874748
  0.9961126498921015  0.7432733416990851  0.9807519150522205
  0.0116746934931290  0.7487933216466425  0.4875172745303457
  0.5175835963669209  0.2412996751500635  0.9996541474774213
  0.5208643668463421  0.2471478161579281  0.4614450084311086
  0.5261470720880610  0.7418199718579682  0.9916450553677463
  0.4767947577055809  0.7477486016899548  0.4941308121213009
  0.2494875636842305  0.4825774000293152  0.4685590346265582
  0.2583094092416811  0.5009820753504011  0.9927729193791047
  0.2482394838813813  0.0137186276336724  0.5126584330173161
  0.2559687387560880  0.9830069215579441  0.0136313902978333
  0.7483056392568468  0.5396047873507644  0.4896785566852621
  0.7576068316810182  0.4890388588267638 -0.0000112304134634
  0.7469138435200805  0.9925739240885542  0.4922138619153001
  0.7549761350006846  0.9920427032144669  0.0364416457555185
  0.5040285926348926  0.9884942059879313  0.9972625031407062
  0.5005232017132450  0.9972191294988574  0.4944456761110801
  0.5099160996470125  0.4932278779192871  0.9929418974862335
  0.5011832178461165  0.4963566678740472  0.4886816865115109
  0.0038386060591554  0.9945068811234374  0.9982169225354012
  0.9971119657796738 -0.0011004904856283  0.4901329006220078
  0.0042919594775023  0.4933831131401825  0.9891461965557694
  0.9990592167789717  0.4960384387696043  0.4891773522977824
  0.2502067401684017  0.2697413295142664  0.7611420100122059
  0.2485078256046757  0.2782991497117890  0.2401192002180569
  0.2394865328012650  0.7318050047069085  0.7640694567984113
  0.7556814606680337  0.7431679764496925  0.7723904034018317
  0.7489094241583495  0.2703266846584686  0.7596062448237569
  0.7791575651288261  0.2757247061042108  0.2619402523125968
  0.3295329978763895  0.2152095342625129  0.7900798967736656
  0.1877705875247159  0.2416186533326536  0.6864873168585662
  0.2765285523546321  0.2176346470639070  0.3155556239757247
  0.2356428344308753  0.2478329030328779  0.1427403904343693
  0.3301205579170619  0.6858713333120274  0.7494579348656965
  0.2204880864822844  0.8263516199113812  0.7316887657906898
  0.8511288353893167  0.7227147157228325  0.7367852166738049
  0.6750753341030292  0.7571315820745204  0.7144629151542157
  0.8268926167295390  0.2129331612113733  0.7858991692756701
  0.6986493592448428  0.2581081324189942  0.6726424111985042
  0.6932213582364227  0.2116821328621590  0.2152267002564767
  0.2347822279447218  0.3441746189178678  0.8027815979222762
  0.3758029646727599  0.2436252895687042  0.8480331086231251
  0.3507039214355933  0.1446119712476249  0.7564021798738515
  0.1977411976388144  0.1738268224098282  0.6421639922026079
  0.1275257892319010  0.2890494202970355  0.6699044094046966
  0.2345800809963639  0.3606949355902691  0.2613465315134229
  0.2871104612923885  0.2501792536856073  0.3880321916615753
  0.2947935604904140  0.1403729049167242  0.3043822601291468
  0.2452087177597184  0.1716502279586718  0.1159223815833376
  0.2147548779384427  0.3022354157961037  0.0900865210387374
  0.1758339960018183  0.6881847355979800  0.8058784608314598
  0.3401953354380702  0.6118501647970900  0.7765604806658726
  0.3903840433241906  0.7190202654524026  0.7043633548043345
  0.2769602735960504  0.8725504028402581  0.6938525028125736
  0.1478857663063251  0.8581718559658251  0.7439134770920838
  0.7411761045965962  0.7489024695986242  0.8576176782948527
  0.9078079337611390  0.7158710773686405  0.7902408888057292
  0.8742957801208218  0.7201528585890437  0.6583763032925463
  0.6789393273100993  0.7515626124920611  0.6343607255123755
  0.6052358271321392  0.7767982148333114  0.7507531312323790
  0.7237588536087688  0.3332115205861860  0.8141695425416297
  0.8641162546107467  0.2289274239413774  0.8541648411939293
  0.8567548231564236  0.1530114377774665  0.7397209737665073
  0.7175530940398790  0.2023428099689506  0.6165405031066198
  0.6381530071698081  0.3065902585987293  0.6596905436428522
  0.6493081216071045  0.2552144936851335  0.1659316068414644
  0.6410996843723628  0.1819809604744828  0.2731243452522200
  0.7215733757394818  0.1484069135184707  0.1696327899219298
  0.7442390617160851  0.3367597598522072  0.3133460845681218
  0.8259679476620323  0.2241303109534291  0.3078376130369648
  0.8281364628241289  0.3115001236311147  0.1985526902627101
 
  0.00000000E+00  0.00000000E+00  0.00000000E+00
  0.00000000E+00  0.00000000E+00  0.00000000E+00
  0.00000000E+00  0.00000000E+00  0.00000000E+00
  0.00000000E+00  0.00000000E+00  0.00000000E+00
  0.00000000E+00  0.00000000E+00  0.00000000E+00
  0.00000000E+00  0.00000000E+00  0.00000000E+00
  0.00000000E+00  0.00000000E+00  0.00000000E+00
  0.00000000E+00  0.00000000E+00  0.00000000E+00
  0.00000000E+00  0.00000000E+00  0.00000000E+00
  0.00000000E+00  0.00000000E+00  0.00000000E+00
  0.00000000E+00  0.00000000E+00  0.00000000E+00
  0.00000000E+00  0.00000000E+00  0.00000000E+00
  0.00000000E+00  0.00000000E+00  0.00000000E+00
  0.00000000E+00  0.00000000E+00  0.00000000E+00
  0.00000000E+00  0.00000000E+00  0.00000000E+00
  0.00000000E+00  0.00000000E+00  0.00000000E+00
  0.00000000E+00  0.00000000E+00  0.00000000E+00
  0.00000000E+00  0.00000000E+00  0.00000000E+00
  0.00000000E+00  0.00000000E+00  0.00000000E+00
  0.00000000E+00  0.00000000E+00  0.00000000E+00
  0.00000000E+00  0.00000000E+00  0.00000000E+00
  0.00000000E+00  0.00000000E+00  0.00000000E+00
  0.00000000E+00  0.00000000E+00  0.00000000E+00
  0.00000000E+00  0.00000000E+00  0.00000000E+00
  0.00000000E+00  0.00000000E+00  0.00000000E+00
  0.00000000E+00  0.00000000E+00  0.00000000E+00
  0.00000000E+00  0.00000000E+00  0.00000000E+00
  0.00000000E+00  0.00000000E+00  0.00000000E+00
  0.00000000E+00  0.00000000E+00  0.00000000E+00
  0.00000000E+00  0.00000000E+00  0.00000000E+00
  0.00000000E+00  0.00000000E+00  0.00000000E+00
  0.00000000E+00  0.00000000E+00  0.00000000E+00
  0.00000000E+00  0.00000000E+00  0.00000000E+00
  0.00000000E+00  0.00000000E+00  0.00000000E+00
  0.00000000E+00  0.00000000E+00  0.00000000E+00
  0.00000000E+00  0.00000000E+00  0.00000000E+00
  0.00000000E+00  0.00000000E+00  0.00000000E+00
  0.00000000E+00  0.00000000E+00  0.00000000E+00
  0.00000000E+00  0.00000000E+00  0.00000000E+00
  0.00000000E+00  0.00000000E+00  0.00000000E+00
  0.00000000E+00  0.00000000E+00  0.00000000E+00
  0.00000000E+00  0.00000000E+00  0.00000000E+00
  0.00000000E+00  0.00000000E+00  0.00000000E+00
  0.00000000E+00  0.00000000E+00  0.00000000E+00
  0.00000000E+00  0.00000000E+00  0.00000000E+00
  0.00000000E+00  0.00000000E+00  0.00000000E+00
  0.00000000E+00  0.00000000E+00  0.00000000E+00
  0.00000000E+00  0.00000000E+00  0.00000000E+00
  0.00000000E+00  0.00000000E+00  0.00000000E+00
  0.00000000E+00  0.00000000E+00  0.00000000E+00
  0.00000000E+00  0.00000000E+00  0.00000000E+00
  0.00000000E+00  0.00000000E+00  0.00000000E+00
  0.00000000E+00  0.00000000E+00  0.00000000E+00
  0.00000000E+00  0.00000000E+00  0.00000000E+00
  0.00000000E+00  0.00000000E+00  0.00000000E+00
  0.00000000E+00  0.00000000E+00  0.00000000E+00
  0.00000000E+00  0.00000000E+00  0.00000000E+00
  0.00000000E+00  0.00000000E+00  0.00000000E+00
  0.00000000E+00  0.00000000E+00  0.00000000E+00
  0.00000000E+00  0.00000000E+00  0.00000000E+00
  0.00000000E+00  0.00000000E+00  0.00000000E+00
  0.00000000E+00  0.00000000E+00  0.00000000E+00
  0.00000000E+00  0.00000000E+00  0.00000000E+00
  0.00000000E+00  0.00000000E+00  0.00000000E+00
  0.00000000E+00  0.00000000E+00  0.00000000E+00
  0.00000000E+00  0.00000000E+00  0.00000000E+00
  0.00000000E+00  0.00000000E+00  0.00000000E+00
  0.00000000E+00  0.00000000E+00  0.00000000E+00
  0.00000000E+00  0.00000000E+00  0.00000000E+00
  0.00000000E+00  0.00000000E+00  0.00000000E+00
  0.00000000E+00  0.00000000E+00  0.00000000E+00
  0.00000000E+00  0.00000000E+00  0.00000000E+00
  0.00000000E+00  0.00000000E+00  0.00000000E+00
  0.00000000E+00  0.00000000E+00  0.00000000E+00
  0.00000000E+00  0.00000000E+00  0.00000000E+00
  0.00000000E+00  0.00000000E+00  0.00000000E+00
  0.00000000E+00  0.00000000E+00  0.00000000E+00
  0.00000000E+00  0.00000000E+00  0.00000000E+00
  0.00000000E+00  0.00000000E+00  0.00000000E+00
  0.00000000E+00  0.00000000E+00  0.00000000E+00
  0.00000000E+00  0.00000000E+00  0.00000000E+00
  0.00000000E+00  0.00000000E+00  0.00000000E+00
