ortho_FA0250MA0375Cs0375                
   1.00000000000000     
    11.0415840554078795   -0.0725880917948601   -0.1100975789850718
    -0.0634165208120440    9.5377018256996919    0.0328689216618438
    -0.1807129441185721    0.0545754085034650   19.1532915924574993
   Pb   I    Cs   C    N    H 
     8    24     3     5     7    28
Direct
  0.1606181487088134  0.1260199716693369  0.4465643097712017
  0.1582595854705832  0.6311923987589839  0.4514100391978815
  0.8375979189170231  0.3739694998971725  0.5630430277026673
  0.8387253268223515  0.8788507377370823  0.5624727590556581
  0.3465364767565160  0.3690059223772927  0.9318189494276895
  0.3516449178852958  0.8733111956860554  0.9294971414016974
  0.6722019279360639  0.1190446684392694  0.0520080216133761
  0.6671010518678482  0.6155787616323155  0.0490424827465063
  0.1873289292531547  0.1114957815999223  0.9935981737210687
  0.1876115669684763  0.6258231124713541  0.9912903849426542
  0.8417150474714472  0.3723173009617188  0.0027615211679621
  0.8378008053788085  0.8689247798617600 -0.0006401584546988
  0.3373902023557375  0.3796217848355833  0.5028290663551199
  0.3375021353973998  0.8790574537382652  0.5054397813688708
  0.6640912238778240  0.1244698783608883  0.5083143005995829
  0.6625557910930558  0.6252158273675907  0.5114212751672198
  0.2322871604409038  0.1235226667784593  0.2903617721025431
  0.2364837556585507  0.6390331087738906  0.2961270494700091
  0.7057183228023330  0.3644090653607664  0.7090934288054641
  0.7090345549886041  0.8850049758952134  0.7104030211907705
  0.2162129262590661  0.3645540758645533  0.7830836078093725
  0.2208575053083965  0.8784406857206389  0.7811234884221119
  0.8027586107612305  0.1043337125892530  0.1998583315072266
  0.7968187679001176  0.6181916008588445  0.1972628102468801
  0.0353325141381907  0.1291994908949706  0.6047893438508691
  0.0321984997798462  0.6266409816471953  0.6105727773516726
  0.9669407900902243  0.3754163089943894  0.4082027753039686
  0.9651859596103471  0.8752441108089188  0.4087284437307687
  0.4768393147821013  0.3617865582606695  0.0951032298753530
  0.4756592393374497  0.8651540063048822  0.0941082878493882
  0.5422356692262823  0.1305651713408129  0.8883256187557237
  0.5407014357942804  0.6174277297435588  0.8856108332687788
  0.4190870639705856  0.1255643751340149  0.6733803966455008
  0.4205811741754218  0.6240926699377327  0.6797180826871471
  0.0781068366338302  0.8712336214753242  0.1489331727594072
  0.5584414858074193  0.8727089792130368  0.3375721350373437
  0.5642974498145010  0.3839320953577784  0.3351658217199715
  0.1067124265796064  0.3819504751308206  0.1468291601756019
  0.9354391550612974  0.1197919273744048  0.8550846434324737
  0.9560981548249402  0.6251576120024346  0.8522995065401704
  0.6586833503686615  0.8001001896230748  0.3370851478456727
  0.5026730463671945  0.9234366573885383  0.2819321961574692
  0.6674189697045347  0.3185695366247657  0.3284591606492423
  0.4858021117650703  0.4073885079904316  0.2842307543604887
  0.0402857603469517  0.3844389744617819  0.2136201922509535
  0.9326980148967248  0.1297048709512526  0.7775985744773265
  0.8994944047866393  0.6234267212626082  0.7812899409948546
  0.5180305385650060  0.8924584326881623  0.3883685937319124
  0.6941051468976315  0.7638070779485608  0.3834557656864638
  0.7019505619759139  0.7729577828794842  0.2918453233807544
  0.5308832553662044  0.9062641395210715  0.2319208711158875
  0.4223003846548949  0.9757531445443324  0.2872843570066390
  0.5416928545135318  0.4211546252706694  0.3872442268906968
  0.7239789544370964  0.3070323381089274  0.3709624449739022
  0.6965214890964755  0.2768360406719863  0.2820970667708829
  0.4994529729005699  0.3781721816405185  0.2333736051720877
  0.4075207849628135  0.4607394105525558  0.2940179672634752
  0.9538244118234216  0.4272905459686007  0.2067413253496257
  0.0873899830872259  0.4469922650205452  0.2500495118498027
  0.0311927181666812  0.2847463377488035  0.2348517736938513
  0.1088766956772412  0.4877260099694821  0.1244925200585078
  0.1991883698959513  0.3465732529161019  0.1572555571977495
  0.0592351287148898  0.3116676029151479  0.1103455296833716
  0.8806304017890220  0.2138484285639133  0.7598682823418618
  0.8912746332598173  0.0415523661662113  0.7551695639386914
  0.0191066229591029  0.1414521917825507  0.7579487605334070
  0.8424446678164598  0.1085818077045423  0.8734437266828329
 -0.0106486240796594  0.0289844145111447  0.8707955067714530
  0.9781892622111406  0.2149583769666364  0.8763019845644583
  0.8465274590447432  0.7115040797547606  0.7707118052817828
  0.8416113893593993  0.5372306880966442  0.7730015155843225
  0.9639270956976733  0.6202814748294926  0.7424073631242054
  0.8850631121230029  0.6327360089405774  0.8911186281411276
  0.0075775876858907  0.5288299422745911  0.8600787025594023
  0.0184307698670767  0.7151704726652930  0.8558678775648584
 
  0.00000000E+00  0.00000000E+00  0.00000000E+00
  0.00000000E+00  0.00000000E+00  0.00000000E+00
  0.00000000E+00  0.00000000E+00  0.00000000E+00
  0.00000000E+00  0.00000000E+00  0.00000000E+00
  0.00000000E+00  0.00000000E+00  0.00000000E+00
  0.00000000E+00  0.00000000E+00  0.00000000E+00
  0.00000000E+00  0.00000000E+00  0.00000000E+00
  0.00000000E+00  0.00000000E+00  0.00000000E+00
  0.00000000E+00  0.00000000E+00  0.00000000E+00
  0.00000000E+00  0.00000000E+00  0.00000000E+00
  0.00000000E+00  0.00000000E+00  0.00000000E+00
  0.00000000E+00  0.00000000E+00  0.00000000E+00
  0.00000000E+00  0.00000000E+00  0.00000000E+00
  0.00000000E+00  0.00000000E+00  0.00000000E+00
  0.00000000E+00  0.00000000E+00  0.00000000E+00
  0.00000000E+00  0.00000000E+00  0.00000000E+00
  0.00000000E+00  0.00000000E+00  0.00000000E+00
  0.00000000E+00  0.00000000E+00  0.00000000E+00
  0.00000000E+00  0.00000000E+00  0.00000000E+00
  0.00000000E+00  0.00000000E+00  0.00000000E+00
  0.00000000E+00  0.00000000E+00  0.00000000E+00
  0.00000000E+00  0.00000000E+00  0.00000000E+00
  0.00000000E+00  0.00000000E+00  0.00000000E+00
  0.00000000E+00  0.00000000E+00  0.00000000E+00
  0.00000000E+00  0.00000000E+00  0.00000000E+00
  0.00000000E+00  0.00000000E+00  0.00000000E+00
  0.00000000E+00  0.00000000E+00  0.00000000E+00
  0.00000000E+00  0.00000000E+00  0.00000000E+00
  0.00000000E+00  0.00000000E+00  0.00000000E+00
  0.00000000E+00  0.00000000E+00  0.00000000E+00
  0.00000000E+00  0.00000000E+00  0.00000000E+00
  0.00000000E+00  0.00000000E+00  0.00000000E+00
  0.00000000E+00  0.00000000E+00  0.00000000E+00
  0.00000000E+00  0.00000000E+00  0.00000000E+00
  0.00000000E+00  0.00000000E+00  0.00000000E+00
  0.00000000E+00  0.00000000E+00  0.00000000E+00
  0.00000000E+00  0.00000000E+00  0.00000000E+00
  0.00000000E+00  0.00000000E+00  0.00000000E+00
  0.00000000E+00  0.00000000E+00  0.00000000E+00
  0.00000000E+00  0.00000000E+00  0.00000000E+00
  0.00000000E+00  0.00000000E+00  0.00000000E+00
  0.00000000E+00  0.00000000E+00  0.00000000E+00
  0.00000000E+00  0.00000000E+00  0.00000000E+00
  0.00000000E+00  0.00000000E+00  0.00000000E+00
  0.00000000E+00  0.00000000E+00  0.00000000E+00
  0.00000000E+00  0.00000000E+00  0.00000000E+00
  0.00000000E+00  0.00000000E+00  0.00000000E+00
  0.00000000E+00  0.00000000E+00  0.00000000E+00
  0.00000000E+00  0.00000000E+00  0.00000000E+00
  0.00000000E+00  0.00000000E+00  0.00000000E+00
  0.00000000E+00  0.00000000E+00  0.00000000E+00
  0.00000000E+00  0.00000000E+00  0.00000000E+00
  0.00000000E+00  0.00000000E+00  0.00000000E+00
  0.00000000E+00  0.00000000E+00  0.00000000E+00
  0.00000000E+00  0.00000000E+00  0.00000000E+00
  0.00000000E+00  0.00000000E+00  0.00000000E+00
  0.00000000E+00  0.00000000E+00  0.00000000E+00
  0.00000000E+00  0.00000000E+00  0.00000000E+00
  0.00000000E+00  0.00000000E+00  0.00000000E+00
  0.00000000E+00  0.00000000E+00  0.00000000E+00
  0.00000000E+00  0.00000000E+00  0.00000000E+00
  0.00000000E+00  0.00000000E+00  0.00000000E+00
  0.00000000E+00  0.00000000E+00  0.00000000E+00
  0.00000000E+00  0.00000000E+00  0.00000000E+00
  0.00000000E+00  0.00000000E+00  0.00000000E+00
  0.00000000E+00  0.00000000E+00  0.00000000E+00
  0.00000000E+00  0.00000000E+00  0.00000000E+00
  0.00000000E+00  0.00000000E+00  0.00000000E+00
  0.00000000E+00  0.00000000E+00  0.00000000E+00
  0.00000000E+00  0.00000000E+00  0.00000000E+00
  0.00000000E+00  0.00000000E+00  0.00000000E+00
  0.00000000E+00  0.00000000E+00  0.00000000E+00
  0.00000000E+00  0.00000000E+00  0.00000000E+00
  0.00000000E+00  0.00000000E+00  0.00000000E+00
  0.00000000E+00  0.00000000E+00  0.00000000E+00
