hexa_FA0750MA0125Cs0125                 
   1.00000000000000     
    18.9537660886938788    0.0455575535725515    0.0486158355468637
    -9.4419955198670174   14.4877154550823732   -0.0522296930646295
     0.0198679428384874   -0.0148873227297280    7.7364909400304729
   Pb   I    N    C    H    Cs
     8    24    13     7    36     1
Direct
  0.4973119115618788  0.5023381014749949  0.9378786631372487
  0.4987392551863536  0.9975003958749223  0.9405483461960046
  0.0086184581274330  0.5056708773182629  0.9417351403550998
  0.0007057608749757  0.9989237006398606  0.9395978164604997
  0.0022343239481339  0.9977337287104104  0.4372605207868767
  0.0100296638914903  0.5081851861724086  0.4411621451855863
  0.4976122771379394  0.9972496076100293  0.4399741364074062
  0.4973176356778345  0.5024859257210418  0.4400787669614672
  0.4289906205698838  0.0918116775961445  0.1895837425055182
  0.4145166797759464  0.5835754390722837  0.1909980080882500
  0.9209616467723025  0.0798948485839514  0.1948292247335083
  0.9423718210376920  0.6044108144302630  0.1916047153335990
  0.4111350358688663  0.3236712645453740  0.1883491073058516
  0.4035268022786243  0.8193151781073494  0.1891530844771092
  0.9138911957263237  0.3282586169574577  0.1989119649225638
  0.9174289600416297  0.8213621472190031  0.1861546884035724
  0.1638690761726059  0.0783836112709458  0.1845164882975813
  0.1700759913871512  0.5851523102008829  0.1897322902858619
  0.6616167663253815  0.0782438419839335  0.1922667245183867
  0.6602408430910202  0.5823257323034882  0.1880876020968022
  0.0852613598275833  0.4198589690503585  0.6876518368150309
  0.0841774315246497  0.9162601658957985  0.6936679588046334
  0.5789143057724961  0.4212624298683152  0.6872308071653025
  0.5709630235874711  0.9077616316378184  0.6865932651510569
  0.0889154452633591  0.1767447692424040  0.6883390270615142
  0.1044087040570114  0.6847394454113288  0.7032646061312162
  0.5891110634147484  0.1763546494129261  0.6908948066509537
  0.5811927392471266  0.6791427977064634  0.6906482982725264
  0.3349479519629386  0.4195733986605331  0.6896393124105796
  0.3362079092320756  0.9144594347284362  0.6957407269747521
  0.8454737113284723  0.4260616732844720  0.6905414790773111
  0.8393658993923294  0.9177240482856581  0.6872122747332930
  0.2211937211579484  0.3193512449637818  0.1865294617201402
  0.7226478494280708  0.3209402442451597  0.1866921574212692
  0.7222998019783705  0.8212362425849244  0.1867302817992559
  0.0990310836445572  0.3208529432485843  0.1864090897347800
  0.6029672237199654  0.3270109268125904  0.1863232884730454
  0.5991340670056556  0.8209805589687729  0.1866567179008608
  0.2792067905053325  0.1798927335667505  0.6863233741642024
  0.7780103141608397  0.1798260887677036  0.6865844182250347
  0.7774023035326826  0.6786856831280931  0.6865191377394332
  0.4018899201401721  0.1794585885289038  0.6868554295835967
  0.9005111809325674  0.1790470810933484  0.6868561287735239
  0.9001764915798811  0.6779131144658439  0.6863590062451203
  0.1377599719088923  0.8317922126420275  0.1074340203278827
  0.1810871321935405  0.3617446552100658  0.1864967471796520
  0.6846884799791239  0.3657627785834923  0.1863804328519132
  0.6812643131928288  0.8626442357500748  0.1867299921111560
  0.3198315553839144  0.1380333850155018  0.6866794966203466
  0.8183667247149643  0.1377229870781450  0.6866161624394551
  0.8180211699483062  0.6368684887853042  0.6865583607599429
  0.1994502402493667  0.8663347115118493  0.2529579067880704
  0.2189675074069365  0.4372202640712972  0.1865408530029727
  0.7241102112387929  0.4411481218103094  0.1861291830356877
  0.7184406651368079  0.9380935953937091  0.1868312604589507
  0.2823227901136652  0.0625679649722682  0.6868498097088203
  0.7805832491573126  0.0622416355216595  0.6864818274763907
  0.7804015941079266  0.5614056854304186  0.6867440684749315
  0.1917485324837400  0.2488598007607712  0.1862023687351242
  0.6911898587604389  0.2502061819515844  0.1873294003577609
  0.6935593250443880  0.7507435099912924  0.1867557311858582
  0.2855919355590193  0.3563813435058761  0.1866309853031460
  0.7869338471432865  0.3556908203988392  0.1874588522480143
  0.7865944017345317  0.8592781316809135  0.1869379802889978
  0.0728674001034224  0.3593340954986119  0.1872910683576832
  0.5781395809569880  0.3668095099334903  0.1862466955806126
  0.5725195256912560  0.8589725178802957  0.1870450216609305
  0.0576141817972028  0.2504715167422866  0.1871927042550581
  0.5602889768220952  0.2565297962589494  0.1867232952406597
  0.5579364376194074  0.7505810180839465  0.1868848861067767
  0.3082482900785218  0.2503743961812671  0.6864997734675421
  0.8076068111385126  0.2503765986582382  0.6864009794484677
  0.8063841228499814  0.7492367527953964  0.6865475144363403
  0.2148600732999098  0.1424195682934125  0.6867578104163236
  0.7136142824528445  0.1427988855763532  0.6863070704162623
  0.7130635846982517  0.6408374806831222  0.6867907423923019
  0.4287043981748082  0.1416341323272466  0.6874414207726819
  0.9272567767353515  0.1411441184124859  0.6863638425478853
  0.9257511121045419  0.6389382303873269  0.6868262099356605
  0.4429291859524145  0.2499365761876418  0.6867461665723773
  0.9416928623660589  0.2494961504901651  0.6864260300530560
  0.9417992971742264  0.7482357393132630  0.6861893388258208
  0.1293220453121011  0.8826432791769154  0.0629209989688525
  0.0788874736133302  0.7754834321892236  0.1443830429789286
  0.1567338913778064  0.8095591246172797  0.0028386983713560
  0.1766652871359423  0.8909169950502047  0.3565332568938961
  0.2044567225144620  0.8097742717688542  0.2990707751128954
  0.2606541808536778  0.9231248850179170  0.2059770698742885
  0.3323107540947874  0.6653601420068773  0.6865817945313724
 
  0.00000000E+00  0.00000000E+00  0.00000000E+00
  0.00000000E+00  0.00000000E+00  0.00000000E+00
  0.00000000E+00  0.00000000E+00  0.00000000E+00
  0.00000000E+00  0.00000000E+00  0.00000000E+00
  0.00000000E+00  0.00000000E+00  0.00000000E+00
  0.00000000E+00  0.00000000E+00  0.00000000E+00
  0.00000000E+00  0.00000000E+00  0.00000000E+00
  0.00000000E+00  0.00000000E+00  0.00000000E+00
  0.00000000E+00  0.00000000E+00  0.00000000E+00
  0.00000000E+00  0.00000000E+00  0.00000000E+00
  0.00000000E+00  0.00000000E+00  0.00000000E+00
  0.00000000E+00  0.00000000E+00  0.00000000E+00
  0.00000000E+00  0.00000000E+00  0.00000000E+00
  0.00000000E+00  0.00000000E+00  0.00000000E+00
  0.00000000E+00  0.00000000E+00  0.00000000E+00
  0.00000000E+00  0.00000000E+00  0.00000000E+00
  0.00000000E+00  0.00000000E+00  0.00000000E+00
  0.00000000E+00  0.00000000E+00  0.00000000E+00
  0.00000000E+00  0.00000000E+00  0.00000000E+00
  0.00000000E+00  0.00000000E+00  0.00000000E+00
  0.00000000E+00  0.00000000E+00  0.00000000E+00
  0.00000000E+00  0.00000000E+00  0.00000000E+00
  0.00000000E+00  0.00000000E+00  0.00000000E+00
  0.00000000E+00  0.00000000E+00  0.00000000E+00
  0.00000000E+00  0.00000000E+00  0.00000000E+00
  0.00000000E+00  0.00000000E+00  0.00000000E+00
  0.00000000E+00  0.00000000E+00  0.00000000E+00
  0.00000000E+00  0.00000000E+00  0.00000000E+00
  0.00000000E+00  0.00000000E+00  0.00000000E+00
  0.00000000E+00  0.00000000E+00  0.00000000E+00
  0.00000000E+00  0.00000000E+00  0.00000000E+00
  0.00000000E+00  0.00000000E+00  0.00000000E+00
  0.00000000E+00  0.00000000E+00  0.00000000E+00
  0.00000000E+00  0.00000000E+00  0.00000000E+00
  0.00000000E+00  0.00000000E+00  0.00000000E+00
  0.00000000E+00  0.00000000E+00  0.00000000E+00
  0.00000000E+00  0.00000000E+00  0.00000000E+00
  0.00000000E+00  0.00000000E+00  0.00000000E+00
  0.00000000E+00  0.00000000E+00  0.00000000E+00
  0.00000000E+00  0.00000000E+00  0.00000000E+00
  0.00000000E+00  0.00000000E+00  0.00000000E+00
  0.00000000E+00  0.00000000E+00  0.00000000E+00
  0.00000000E+00  0.00000000E+00  0.00000000E+00
  0.00000000E+00  0.00000000E+00  0.00000000E+00
  0.00000000E+00  0.00000000E+00  0.00000000E+00
  0.00000000E+00  0.00000000E+00  0.00000000E+00
  0.00000000E+00  0.00000000E+00  0.00000000E+00
  0.00000000E+00  0.00000000E+00  0.00000000E+00
  0.00000000E+00  0.00000000E+00  0.00000000E+00
  0.00000000E+00  0.00000000E+00  0.00000000E+00
  0.00000000E+00  0.00000000E+00  0.00000000E+00
  0.00000000E+00  0.00000000E+00  0.00000000E+00
  0.00000000E+00  0.00000000E+00  0.00000000E+00
  0.00000000E+00  0.00000000E+00  0.00000000E+00
  0.00000000E+00  0.00000000E+00  0.00000000E+00
  0.00000000E+00  0.00000000E+00  0.00000000E+00
  0.00000000E+00  0.00000000E+00  0.00000000E+00
  0.00000000E+00  0.00000000E+00  0.00000000E+00
  0.00000000E+00  0.00000000E+00  0.00000000E+00
  0.00000000E+00  0.00000000E+00  0.00000000E+00
  0.00000000E+00  0.00000000E+00  0.00000000E+00
  0.00000000E+00  0.00000000E+00  0.00000000E+00
  0.00000000E+00  0.00000000E+00  0.00000000E+00
  0.00000000E+00  0.00000000E+00  0.00000000E+00
  0.00000000E+00  0.00000000E+00  0.00000000E+00
  0.00000000E+00  0.00000000E+00  0.00000000E+00
  0.00000000E+00  0.00000000E+00  0.00000000E+00
  0.00000000E+00  0.00000000E+00  0.00000000E+00
  0.00000000E+00  0.00000000E+00  0.00000000E+00
  0.00000000E+00  0.00000000E+00  0.00000000E+00
  0.00000000E+00  0.00000000E+00  0.00000000E+00
  0.00000000E+00  0.00000000E+00  0.00000000E+00
  0.00000000E+00  0.00000000E+00  0.00000000E+00
  0.00000000E+00  0.00000000E+00  0.00000000E+00
  0.00000000E+00  0.00000000E+00  0.00000000E+00
  0.00000000E+00  0.00000000E+00  0.00000000E+00
  0.00000000E+00  0.00000000E+00  0.00000000E+00
  0.00000000E+00  0.00000000E+00  0.00000000E+00
  0.00000000E+00  0.00000000E+00  0.00000000E+00
  0.00000000E+00  0.00000000E+00  0.00000000E+00
  0.00000000E+00  0.00000000E+00  0.00000000E+00
  0.00000000E+00  0.00000000E+00  0.00000000E+00
  0.00000000E+00  0.00000000E+00  0.00000000E+00
  0.00000000E+00  0.00000000E+00  0.00000000E+00
  0.00000000E+00  0.00000000E+00  0.00000000E+00
  0.00000000E+00  0.00000000E+00  0.00000000E+00
  0.00000000E+00  0.00000000E+00  0.00000000E+00
  0.00000000E+00  0.00000000E+00  0.00000000E+00
  0.00000000E+00  0.00000000E+00  0.00000000E+00
