ortho_FA0250MA0625Cs0125                
   1.00000000000000     
    11.2678400368617719   -0.0785501617365269    0.1084863022217846
    -0.0683561619487372    9.4585573357851143   -0.1835502191267620
     0.1839650733142162   -0.3424062413809454   18.9789673389933142
   Pb   I    Cs   C    N    H 
     8    24     1     7     9    40
Direct
  0.1729292651452213  0.1135672860464246  0.4347041968496307
  0.1710582559941199  0.6205905301067223  0.4506662998962473
  0.8521459026512197  0.3718024865909363  0.5640411961934518
  0.8567122313851175  0.8535878876992042  0.5643966210235450
  0.3358250188132421  0.3796091705096885  0.9380364620728576
  0.3395859615690381  0.8846816198434549  0.9323292918318506
  0.6563121491118197  0.1499122823419996  0.0451508348331463
  0.6599000158156690  0.6396311037005977  0.0494419278447240
  0.1732305074521212  0.1235469299728131  0.0036507405777959
  0.1669982642840853  0.6402764804199778  0.9885224959316092
  0.8375310448615690  0.3956549596026616 -0.0009065705828816
  0.8187654923834848  0.8875147915364721  0.9863759759633591
  0.3424541790953199  0.3614134264974410  0.5035448632952771
  0.3416993165265020  0.8787644068139290  0.5001734501022523
  0.6850171774250805  0.1049773700743544  0.5232659142921390
  0.6892880883764323  0.6086648706439545  0.5026300380300286
  0.2980166556376583  0.1277858455525936  0.2865036119797310
  0.3024773315573290  0.6173484426183348  0.2997447880032745
  0.7387732503750242  0.3928685561660094  0.7137010842986490
  0.7453227213792809  0.8538670467172699  0.7155446653499746
  0.2085504588019422  0.3546152309392430  0.7871638639333194
  0.2084815880469664  0.8862961941884496  0.7849973038562302
  0.7639406910655999  0.1511691024774658  0.2020818850314917
  0.7669984270286170  0.6684597196044189  0.1976709749721436
  0.0447896163298591  0.1220251711887444  0.5981787136369864
  0.0520912172186492  0.6187171789366651  0.6095683815871822
  0.9861388121025957  0.3636270958472145  0.3950895800645020
  0.9878790168842118  0.8508169005298931  0.3970769422525006
  0.4623762006835171  0.3925135470582460  0.0933595030744365
  0.4702976509133411  0.8948628015034736  0.0905755459267544
  0.5315552094745222  0.1397505255252930  0.8905860863137319
  0.5254755743748090  0.6223992142048148  0.8863229265934646
  0.9429060313055606  0.6282071438018112  0.8310261248371369
  0.5465441186907815  0.3728531172032981  0.3397158373629248
  0.0710163343029959  0.8523076248567500  0.1811540935355808
  0.4641160013883291  0.1188711064303814  0.6862506159800210
  0.0820374568871470  0.4255063988662646  0.1596564521618895
  0.6103926779101503  0.8855944049858560  0.3510268587485419
  0.9396410083654426  0.1339699833047475  0.8518487838450042
  0.4638824291170962  0.6406263253622557  0.6504882103104942
  0.6182771810131102  0.2898486924794876  0.3725076558407688
  0.5652882234120864  0.4179329966175067  0.2760320508137213
  0.1846479750138443  0.8301908887051413  0.1705926789867501
  0.0024906105842241  0.9183892940570848  0.1381652683267527
  0.3464924165268166  0.1273364956102628  0.6523410336167658
  0.0543701788825686  0.3078857963255605  0.2077105059780301
  0.5394966774625771  0.8736786399840746  0.2856909246564631
  0.9267863639461112  0.1326783475156827  0.7742917722553304
  0.3931955073500400  0.6170824297931919  0.7161603542844447
  0.4659217426740415  0.4074732225171874  0.3680450399730382
  0.5994295153647429  0.2614499667269954  0.4230859162451882
  0.6956392437242711  0.2546200478350544  0.3496540615716674
  0.6360085047938030  0.3851910655091514  0.2449342987884167
  0.5011858094960752  0.4772269720545361  0.2543843377235535
  0.0299106193192906  0.8136249023186721  0.2296225154516833
  0.2310891389449136  0.7803950594736260  0.2084921592906082
  0.2314169530947627  0.8644266413833549  0.1275509891307413
  0.0328097465965023  0.9546089666253894  0.0907470594752361
  0.9133210734864918  0.9233582971007500  0.1488873372781106
  0.3458134587802766  0.2054061472817889  0.6147940766091459
  0.2801783349348205  0.1513938909095132  0.6895814308121669
  0.3235078964643193  0.0337080688695451  0.6253280462963194
  0.4844056347093863  0.2204219834608716  0.7131815648283473
  0.4594817094595957  0.0359390857004191  0.7250234704714776
  0.5321275061509250  0.0954122437330878  0.6456629932245821
  0.9719316075763768  0.2595393940193072  0.1969874048464431
  0.0492835057218647  0.3432050696243193  0.2604245278461828
  0.1199784317734572  0.2315238996413853  0.2056291884684958
  0.0180998719065952  0.5101351192863695  0.1706820902831581
  0.1728218234586328  0.4633822720295488  0.1692554979761444
  0.0735503156287405  0.3861657072919669  0.1049581416050299
  0.4975270977805025  0.9676313760070296  0.2752777347342526
  0.4715081126402841  0.7976748438851696  0.2904006808703910
  0.5935630355387985  0.8425490857402081  0.2427663556941301
  0.5520819690128722  0.9174788590900927  0.3954550340937771
  0.6489799855136209  0.7824850575258551  0.3603882903947897
  0.6818529891968548  0.9636583878465682  0.3435884219323291
  0.8763814953243287  0.2179352655517189  0.7582192009450818
  0.8811192691170959  0.0412737214290164  0.7556120021774938
  0.0081239102506713  0.1373315110222813  0.7481149037600759
  0.8513550949706623  0.1291068558063646  0.8767181386345464
  0.9918319106437146  0.0426747913955533  0.8657584120699265
  0.9867588882433932  0.2306605370343458  0.8692110939429415
  0.3253812772528620  0.6909798711837177  0.7246579345627145
  0.4454498545320552  0.6263681587185717  0.7609744081081982
  0.3519642615090935  0.5178995671504603  0.7179539887794234
  0.4788015020151085  0.7543138613942643  0.6453046348757586
  0.5496647446003443  0.5885502450022317  0.6539537921096700
  0.4152528136619720  0.5971578334461788  0.6050283023392690
 
  0.00000000E+00  0.00000000E+00  0.00000000E+00
  0.00000000E+00  0.00000000E+00  0.00000000E+00
  0.00000000E+00  0.00000000E+00  0.00000000E+00
  0.00000000E+00  0.00000000E+00  0.00000000E+00
  0.00000000E+00  0.00000000E+00  0.00000000E+00
  0.00000000E+00  0.00000000E+00  0.00000000E+00
  0.00000000E+00  0.00000000E+00  0.00000000E+00
  0.00000000E+00  0.00000000E+00  0.00000000E+00
  0.00000000E+00  0.00000000E+00  0.00000000E+00
  0.00000000E+00  0.00000000E+00  0.00000000E+00
  0.00000000E+00  0.00000000E+00  0.00000000E+00
  0.00000000E+00  0.00000000E+00  0.00000000E+00
  0.00000000E+00  0.00000000E+00  0.00000000E+00
  0.00000000E+00  0.00000000E+00  0.00000000E+00
  0.00000000E+00  0.00000000E+00  0.00000000E+00
  0.00000000E+00  0.00000000E+00  0.00000000E+00
  0.00000000E+00  0.00000000E+00  0.00000000E+00
  0.00000000E+00  0.00000000E+00  0.00000000E+00
  0.00000000E+00  0.00000000E+00  0.00000000E+00
  0.00000000E+00  0.00000000E+00  0.00000000E+00
  0.00000000E+00  0.00000000E+00  0.00000000E+00
  0.00000000E+00  0.00000000E+00  0.00000000E+00
  0.00000000E+00  0.00000000E+00  0.00000000E+00
  0.00000000E+00  0.00000000E+00  0.00000000E+00
  0.00000000E+00  0.00000000E+00  0.00000000E+00
  0.00000000E+00  0.00000000E+00  0.00000000E+00
  0.00000000E+00  0.00000000E+00  0.00000000E+00
  0.00000000E+00  0.00000000E+00  0.00000000E+00
  0.00000000E+00  0.00000000E+00  0.00000000E+00
  0.00000000E+00  0.00000000E+00  0.00000000E+00
  0.00000000E+00  0.00000000E+00  0.00000000E+00
  0.00000000E+00  0.00000000E+00  0.00000000E+00
  0.00000000E+00  0.00000000E+00  0.00000000E+00
  0.00000000E+00  0.00000000E+00  0.00000000E+00
  0.00000000E+00  0.00000000E+00  0.00000000E+00
  0.00000000E+00  0.00000000E+00  0.00000000E+00
  0.00000000E+00  0.00000000E+00  0.00000000E+00
  0.00000000E+00  0.00000000E+00  0.00000000E+00
  0.00000000E+00  0.00000000E+00  0.00000000E+00
  0.00000000E+00  0.00000000E+00  0.00000000E+00
  0.00000000E+00  0.00000000E+00  0.00000000E+00
  0.00000000E+00  0.00000000E+00  0.00000000E+00
  0.00000000E+00  0.00000000E+00  0.00000000E+00
  0.00000000E+00  0.00000000E+00  0.00000000E+00
  0.00000000E+00  0.00000000E+00  0.00000000E+00
  0.00000000E+00  0.00000000E+00  0.00000000E+00
  0.00000000E+00  0.00000000E+00  0.00000000E+00
  0.00000000E+00  0.00000000E+00  0.00000000E+00
  0.00000000E+00  0.00000000E+00  0.00000000E+00
  0.00000000E+00  0.00000000E+00  0.00000000E+00
  0.00000000E+00  0.00000000E+00  0.00000000E+00
  0.00000000E+00  0.00000000E+00  0.00000000E+00
  0.00000000E+00  0.00000000E+00  0.00000000E+00
  0.00000000E+00  0.00000000E+00  0.00000000E+00
  0.00000000E+00  0.00000000E+00  0.00000000E+00
  0.00000000E+00  0.00000000E+00  0.00000000E+00
  0.00000000E+00  0.00000000E+00  0.00000000E+00
  0.00000000E+00  0.00000000E+00  0.00000000E+00
  0.00000000E+00  0.00000000E+00  0.00000000E+00
  0.00000000E+00  0.00000000E+00  0.00000000E+00
  0.00000000E+00  0.00000000E+00  0.00000000E+00
  0.00000000E+00  0.00000000E+00  0.00000000E+00
  0.00000000E+00  0.00000000E+00  0.00000000E+00
  0.00000000E+00  0.00000000E+00  0.00000000E+00
  0.00000000E+00  0.00000000E+00  0.00000000E+00
  0.00000000E+00  0.00000000E+00  0.00000000E+00
  0.00000000E+00  0.00000000E+00  0.00000000E+00
  0.00000000E+00  0.00000000E+00  0.00000000E+00
  0.00000000E+00  0.00000000E+00  0.00000000E+00
  0.00000000E+00  0.00000000E+00  0.00000000E+00
  0.00000000E+00  0.00000000E+00  0.00000000E+00
  0.00000000E+00  0.00000000E+00  0.00000000E+00
  0.00000000E+00  0.00000000E+00  0.00000000E+00
  0.00000000E+00  0.00000000E+00  0.00000000E+00
  0.00000000E+00  0.00000000E+00  0.00000000E+00
  0.00000000E+00  0.00000000E+00  0.00000000E+00
  0.00000000E+00  0.00000000E+00  0.00000000E+00
  0.00000000E+00  0.00000000E+00  0.00000000E+00
  0.00000000E+00  0.00000000E+00  0.00000000E+00
  0.00000000E+00  0.00000000E+00  0.00000000E+00
  0.00000000E+00  0.00000000E+00  0.00000000E+00
  0.00000000E+00  0.00000000E+00  0.00000000E+00
  0.00000000E+00  0.00000000E+00  0.00000000E+00
  0.00000000E+00  0.00000000E+00  0.00000000E+00
  0.00000000E+00  0.00000000E+00  0.00000000E+00
  0.00000000E+00  0.00000000E+00  0.00000000E+00
  0.00000000E+00  0.00000000E+00  0.00000000E+00
  0.00000000E+00  0.00000000E+00  0.00000000E+00
  0.00000000E+00  0.00000000E+00  0.00000000E+00
