ortho_FA0000MA0375Cs0625                
   1.00000000000000     
    10.9757148032992671    0.0337628941843247   -0.0460520038962052
     0.0315950120230560    9.7285454402725708   -0.0175495476794379
    -0.0777436124753030   -0.0313623828144459   18.3631484984110891
   Pb   I    Cs   C    N    H 
     8    24     5     3     3    18
Direct
  0.1704455441358892  0.1282188998163278  0.4435982098342880
  0.1704893757451568  0.6317197223353066  0.4430425619773504
  0.8477167140217086  0.3809773185384793  0.5624051705928450
  0.8474323921699040  0.8738138711835985  0.5593720277259324
  0.3375376565786220  0.3725174978873948  0.9415361169315417
  0.3472189555468738  0.8745885085944510  0.9374164277921185
  0.6615546416373967  0.1288751363517102  0.0576181706085509
  0.6606272375536034  0.6217373695596246  0.0571931018855241
  0.1652757790210437  0.1142290148587821 -0.0131626171838803
  0.1689400766727709  0.6418575017773041 -0.0029152237191455
  0.8470587602222337  0.3757793952428277  0.0094109532917248
  0.8262859390656984  0.8776993313063457  0.9902056544639876
  0.3369672423695274  0.3811065541119341  0.5058815803573138
  0.3395254440094924  0.8780088929660432  0.5068063465045933
  0.6855292389060126  0.1286935125978617  0.4935284005806859
  0.6724946139439181  0.6268126926598189  0.5003820849596832
  0.3071981934220366  0.1393601204501145  0.2983885501076052
  0.3029071530969699  0.6215719124833050  0.2950586081317668
  0.7295927849258663  0.3834974962597819  0.7149265943699686
  0.7241244450700520  0.8689221411643805  0.7123300730700431
  0.2079933420854914  0.3856723575198010  0.7894993382033353
  0.2133738404482154  0.8488714308731552  0.7861464934301791
  0.7840052338930035  0.1079944475848379  0.2117735240067824
  0.7800552125287756  0.6250360135694594  0.2152552375729382
  0.0325770283651394  0.1250251860820609  0.6116144381490908
  0.0351846772566082  0.6269219149751035  0.6098176577356075
  0.9798586008601672  0.3821088479010830  0.3957476433476911
  0.9822279578932023  0.8805444821718948  0.3931685592204265
  0.4787617695384864  0.3784637562600637  0.1070277195826387
  0.4783904723118521  0.8786271245080077  0.1034042897708637
  0.5270884801333829  0.1372367229065891  0.8891732957912926
  0.5315822315485595  0.6105510004581822  0.8923423717189501
  0.4443122452533400  0.6198119629443739  0.6725587155365983
  0.5819826456476263  0.3754874163775921  0.3346506702540629
  0.5680432479069402  0.8760435478075697  0.3329938895158742
  0.9270652101316861  0.1225816501219499  0.8225030194010656
  0.9264707910398658  0.6250930572767570  0.8293479431286634
  0.4656132882092762  0.1392161522460123  0.6560223442651673
  0.1192152262076188  0.9148421649346745  0.1820854631770044
  0.1312872795554611  0.3797479326131129  0.1567980945130982
  0.3445304693608604  0.1162937305516061  0.6892682984998115
  0.0204717929833281  0.8339564819881952  0.1464420966209412
  0.0222474338424031  0.3600215187426012  0.2031821820449601
  0.2747091869090949  0.1139205262869296  0.6507066796891604
  0.3204985049860061  0.1943456985039593  0.7260242212210922
  0.3382698055406191  0.0240094915124957  0.7178923049719802
  0.4670659200821933  0.2430996916669284  0.6333411566127074
  0.5369477305711076  0.1269438894509329  0.6975521528511177
  0.4787140139502475  0.0648638865946130  0.6117988684492057
  0.9721440234428342  0.8895069577095699  0.1072275664692628
  0.9558435459266893  0.7978251819680572  0.1831537539767258
  0.0563214340191300  0.7499610013865837  0.1186212810327081
  0.0793998922683508  0.0087863795269180  0.2047728487491102
  0.1606269188811329  0.8534225560090900  0.2257562515095764
  0.1876807472983211  0.9395939532861557  0.1410623960814987
  0.9417004737860721  0.3801378609003073  0.1750458902661315
  0.0230338006017497  0.4225509554820123  0.2491886318497571
  0.0155072581540248  0.2604347165933860  0.2222776001666694
  0.1266683963325677  0.4824877635831589  0.1326507123048420
  0.2131403475462169  0.3693115950225986  0.1908854912513608
  0.1303071040092016  0.3019859713767252  0.1133895293789264
 
  0.00000000E+00  0.00000000E+00  0.00000000E+00
  0.00000000E+00  0.00000000E+00  0.00000000E+00
  0.00000000E+00  0.00000000E+00  0.00000000E+00
  0.00000000E+00  0.00000000E+00  0.00000000E+00
  0.00000000E+00  0.00000000E+00  0.00000000E+00
  0.00000000E+00  0.00000000E+00  0.00000000E+00
  0.00000000E+00  0.00000000E+00  0.00000000E+00
  0.00000000E+00  0.00000000E+00  0.00000000E+00
  0.00000000E+00  0.00000000E+00  0.00000000E+00
  0.00000000E+00  0.00000000E+00  0.00000000E+00
  0.00000000E+00  0.00000000E+00  0.00000000E+00
  0.00000000E+00  0.00000000E+00  0.00000000E+00
  0.00000000E+00  0.00000000E+00  0.00000000E+00
  0.00000000E+00  0.00000000E+00  0.00000000E+00
  0.00000000E+00  0.00000000E+00  0.00000000E+00
  0.00000000E+00  0.00000000E+00  0.00000000E+00
  0.00000000E+00  0.00000000E+00  0.00000000E+00
  0.00000000E+00  0.00000000E+00  0.00000000E+00
  0.00000000E+00  0.00000000E+00  0.00000000E+00
  0.00000000E+00  0.00000000E+00  0.00000000E+00
  0.00000000E+00  0.00000000E+00  0.00000000E+00
  0.00000000E+00  0.00000000E+00  0.00000000E+00
  0.00000000E+00  0.00000000E+00  0.00000000E+00
  0.00000000E+00  0.00000000E+00  0.00000000E+00
  0.00000000E+00  0.00000000E+00  0.00000000E+00
  0.00000000E+00  0.00000000E+00  0.00000000E+00
  0.00000000E+00  0.00000000E+00  0.00000000E+00
  0.00000000E+00  0.00000000E+00  0.00000000E+00
  0.00000000E+00  0.00000000E+00  0.00000000E+00
  0.00000000E+00  0.00000000E+00  0.00000000E+00
  0.00000000E+00  0.00000000E+00  0.00000000E+00
  0.00000000E+00  0.00000000E+00  0.00000000E+00
  0.00000000E+00  0.00000000E+00  0.00000000E+00
  0.00000000E+00  0.00000000E+00  0.00000000E+00
  0.00000000E+00  0.00000000E+00  0.00000000E+00
  0.00000000E+00  0.00000000E+00  0.00000000E+00
  0.00000000E+00  0.00000000E+00  0.00000000E+00
  0.00000000E+00  0.00000000E+00  0.00000000E+00
  0.00000000E+00  0.00000000E+00  0.00000000E+00
  0.00000000E+00  0.00000000E+00  0.00000000E+00
  0.00000000E+00  0.00000000E+00  0.00000000E+00
  0.00000000E+00  0.00000000E+00  0.00000000E+00
  0.00000000E+00  0.00000000E+00  0.00000000E+00
  0.00000000E+00  0.00000000E+00  0.00000000E+00
  0.00000000E+00  0.00000000E+00  0.00000000E+00
  0.00000000E+00  0.00000000E+00  0.00000000E+00
  0.00000000E+00  0.00000000E+00  0.00000000E+00
  0.00000000E+00  0.00000000E+00  0.00000000E+00
  0.00000000E+00  0.00000000E+00  0.00000000E+00
  0.00000000E+00  0.00000000E+00  0.00000000E+00
  0.00000000E+00  0.00000000E+00  0.00000000E+00
  0.00000000E+00  0.00000000E+00  0.00000000E+00
  0.00000000E+00  0.00000000E+00  0.00000000E+00
  0.00000000E+00  0.00000000E+00  0.00000000E+00
  0.00000000E+00  0.00000000E+00  0.00000000E+00
  0.00000000E+00  0.00000000E+00  0.00000000E+00
  0.00000000E+00  0.00000000E+00  0.00000000E+00
  0.00000000E+00  0.00000000E+00  0.00000000E+00
  0.00000000E+00  0.00000000E+00  0.00000000E+00
  0.00000000E+00  0.00000000E+00  0.00000000E+00
  0.00000000E+00  0.00000000E+00  0.00000000E+00
