ortho_FA0500MA0375Cs0125                
   1.00000000000000     
    11.3344800979527331   -0.1380980492490060    0.0876941256748544
    -0.1236828313098735    9.4283027315660313   -0.2770388165434676
     0.1466756331456852   -0.5043609607101706   19.0306821332503837
   Pb   I    Cs   C    N    H 
     8    24     1     7    11    38
Direct
  0.1558646842590354  0.1198852793102195  0.4368430332633981
  0.1609365897474786  0.6062587097481926  0.4403437478818045
  0.8542464610553957  0.3597586098581356  0.5565406839263876
  0.8540980633511979  0.8557511615589690  0.5568252837658971
  0.3416217281124656  0.3972551786287447  0.9362422142333860
  0.3502986345187323  0.8944050816230030  0.9317696887943537
  0.6627392477144306  0.1573656497408442  0.0477758469028297
  0.6652979595301224  0.6510350388158633  0.0445969929864009
  0.1748319790201667  0.1454559549488392  0.9920222977318887
  0.1680346496189064  0.6551112954665401  0.9892984794663425
  0.8280330499352540  0.4008750889920966  0.9738357399080333
  0.8233325642094064  0.9041505158608455  0.9754520599384013
  0.3268169899276112  0.3684904233674930  0.5027226587395930
  0.3192658273765475  0.8823201317676668  0.4985709729110517
  0.6634815753019043  0.0931774263864390  0.5185493940117105
  0.6840111909128626  0.6016729126140042  0.4938199267023941
  0.3116137856421032  0.0943628648086930  0.3037800227392873
  0.3133903152961224  0.6170073302189928  0.3021548697234557
  0.7581903580258299  0.3892456024067859  0.7097468434106986
  0.7347763738778386  0.8361741600424372  0.7049056982565693
  0.2182658862387844  0.3734112591778713  0.7894012513381879
  0.2356318854909061  0.8747690776101652  0.7816885823773092
  0.7936866105236380  0.1558737723818412  0.1909720224262958
  0.7920509451592049  0.6362217960403447  0.1874933128952328
  0.0312188694091946  0.1239702554699284  0.6039037313141586
  0.0382672374452702  0.6160470801036791  0.6014574483548221
  0.9754289740163439  0.3562399377300223  0.3884065545566473
  0.9762525143374011  0.8483197803168888  0.3917955542772437
  0.4748101391134538  0.4073676227429293  0.0928191345762149
  0.4795751999819020  0.9057886146045264  0.0917209832506652
  0.5307514026501229  0.1517962559946495  0.8903976660515168
  0.5318655158909726  0.6427685093080581  0.8886424558170642
  0.9622590792582726  0.6407349449873639  0.8221570172432197
  0.5685101043885568  0.3451247431116801  0.3362313511008537
  0.0829064167388664  0.8933191169614249  0.1775811925560710
  0.0847201575784533  0.3759558092451395  0.1793923485266063
  0.4064012194500569  0.6073501222144750  0.6712214122102436
  0.9636319242046029  0.1237192741566826  0.8284227041388477
  0.6162142108147335  0.8871355221152060  0.3066834392877935
  0.4703657732494201  0.1428173794442642  0.6900289910794344
  0.6533937743280944  0.2639850723134007  0.3556092214494042
  0.5687422571911567  0.4091425976794666  0.2767175526596393
  0.1777439128005211  0.8162232540822386  0.1716957923423224
  0.0134564443125499  0.9190858363053708  0.1255356879183637
  0.1714639505780499  0.2859244066531857  0.1736198542095342
  0.0281118217170690  0.4237850246845446  0.1263176075890888
  0.4660826336533456  0.5296826316788334  0.7123930316679841
  0.4534426057662947  0.6856911126519111  0.6226742306870918
  0.8339753590225933  0.1175828781111266  0.8185137487301413
  0.5574350167111453  0.8444365828199589  0.3730265001294439
  0.3533977040609413  0.1088087350563112  0.6580349273164915
  0.4927263550569088  0.3610192025602449  0.3719786880984282
  0.6500641718311976  0.2210082273497030  0.4039947397222274
  0.7239326685876639  0.2417104173153534  0.3227606428581615
  0.6371947151893378  0.4028482220704558  0.2409052719218051
  0.4969672307970561  0.4676052046182995  0.2654927328518045
  0.0602830520518910  0.9402782491815292  0.2297437080391938
  0.2270348608110226  0.8002938603673473  0.2151413736092586
  0.2030789605581922  0.7678564879372906  0.1244596922320146
  0.0261465456770246  0.8768517457109151  0.0754471893789864
  0.9395077899822735  0.9783993992919826  0.1357314348132148
  0.0578477336316256  0.4146620972690648  0.2323034282907078
  0.2122051416396229  0.2527915615670994  0.2175726382930618
  0.1982239810120132  0.2433202548653487  0.1252165825600497
  0.0433050624288362  0.3877025841907384  0.0754057339890810
  0.9559862820530900  0.4870733311568602  0.1364061697006922
  0.3105294166794216  0.6068686598154908  0.6784104634988282
  0.4187982878466082  0.4771983649892354  0.7498872470752782
  0.5565057019690480  0.5239244446182326  0.7110637059057850
  0.5418644448002766  0.6859248631482737  0.6105708228238811
  0.4000237952545388  0.7368389000713903  0.5897186606843319
  0.8062087964766119  0.2043018005757098  0.7915084697881849
  0.7881747277827307  0.1167312085505466  0.8659693979961934
  0.8067992907479640  0.0268404101580374  0.7878588927696912
  0.9876500252136879  0.2222763758968247  0.8584651280664589
  0.9893872015104885  0.0337740542753833  0.8582330019815778
  0.0080832085951613  0.1204303660880805  0.7768789500963920
  0.4689634972637940  0.8164269727769438  0.3650558933158777
  0.5616526905273991  0.9251822521266829  0.4124620549055499
  0.5971835265232730  0.7578670796627861  0.3937755535369510
  0.5752249240000744  0.9833463282565847  0.2901461617263825
  0.7107090780697848  0.9054857448133078  0.3158593687705446
  0.6043691975024331  0.8012928863281931  0.2661138713677513
  0.3060384598420992  0.1991475753662952  0.6513753598054765
  0.3030998793219033  0.0443954347408850  0.6911593497705952
  0.3605148876053834  0.0544312848722912  0.6090300411197194
  0.4550834583160402  0.1948656899457647  0.7421051645051758
  0.5173337335481105  0.0439603037433110  0.6955672639525375
  0.5219949702493346  0.2120802899366998  0.6562491085856889
 
  0.00000000E+00  0.00000000E+00  0.00000000E+00
  0.00000000E+00  0.00000000E+00  0.00000000E+00
  0.00000000E+00  0.00000000E+00  0.00000000E+00
  0.00000000E+00  0.00000000E+00  0.00000000E+00
  0.00000000E+00  0.00000000E+00  0.00000000E+00
  0.00000000E+00  0.00000000E+00  0.00000000E+00
  0.00000000E+00  0.00000000E+00  0.00000000E+00
  0.00000000E+00  0.00000000E+00  0.00000000E+00
  0.00000000E+00  0.00000000E+00  0.00000000E+00
  0.00000000E+00  0.00000000E+00  0.00000000E+00
  0.00000000E+00  0.00000000E+00  0.00000000E+00
  0.00000000E+00  0.00000000E+00  0.00000000E+00
  0.00000000E+00  0.00000000E+00  0.00000000E+00
  0.00000000E+00  0.00000000E+00  0.00000000E+00
  0.00000000E+00  0.00000000E+00  0.00000000E+00
  0.00000000E+00  0.00000000E+00  0.00000000E+00
  0.00000000E+00  0.00000000E+00  0.00000000E+00
  0.00000000E+00  0.00000000E+00  0.00000000E+00
  0.00000000E+00  0.00000000E+00  0.00000000E+00
  0.00000000E+00  0.00000000E+00  0.00000000E+00
  0.00000000E+00  0.00000000E+00  0.00000000E+00
  0.00000000E+00  0.00000000E+00  0.00000000E+00
  0.00000000E+00  0.00000000E+00  0.00000000E+00
  0.00000000E+00  0.00000000E+00  0.00000000E+00
  0.00000000E+00  0.00000000E+00  0.00000000E+00
  0.00000000E+00  0.00000000E+00  0.00000000E+00
  0.00000000E+00  0.00000000E+00  0.00000000E+00
  0.00000000E+00  0.00000000E+00  0.00000000E+00
  0.00000000E+00  0.00000000E+00  0.00000000E+00
  0.00000000E+00  0.00000000E+00  0.00000000E+00
  0.00000000E+00  0.00000000E+00  0.00000000E+00
  0.00000000E+00  0.00000000E+00  0.00000000E+00
  0.00000000E+00  0.00000000E+00  0.00000000E+00
  0.00000000E+00  0.00000000E+00  0.00000000E+00
  0.00000000E+00  0.00000000E+00  0.00000000E+00
  0.00000000E+00  0.00000000E+00  0.00000000E+00
  0.00000000E+00  0.00000000E+00  0.00000000E+00
  0.00000000E+00  0.00000000E+00  0.00000000E+00
  0.00000000E+00  0.00000000E+00  0.00000000E+00
  0.00000000E+00  0.00000000E+00  0.00000000E+00
  0.00000000E+00  0.00000000E+00  0.00000000E+00
  0.00000000E+00  0.00000000E+00  0.00000000E+00
  0.00000000E+00  0.00000000E+00  0.00000000E+00
  0.00000000E+00  0.00000000E+00  0.00000000E+00
  0.00000000E+00  0.00000000E+00  0.00000000E+00
  0.00000000E+00  0.00000000E+00  0.00000000E+00
  0.00000000E+00  0.00000000E+00  0.00000000E+00
  0.00000000E+00  0.00000000E+00  0.00000000E+00
  0.00000000E+00  0.00000000E+00  0.00000000E+00
  0.00000000E+00  0.00000000E+00  0.00000000E+00
  0.00000000E+00  0.00000000E+00  0.00000000E+00
  0.00000000E+00  0.00000000E+00  0.00000000E+00
  0.00000000E+00  0.00000000E+00  0.00000000E+00
  0.00000000E+00  0.00000000E+00  0.00000000E+00
  0.00000000E+00  0.00000000E+00  0.00000000E+00
  0.00000000E+00  0.00000000E+00  0.00000000E+00
  0.00000000E+00  0.00000000E+00  0.00000000E+00
  0.00000000E+00  0.00000000E+00  0.00000000E+00
  0.00000000E+00  0.00000000E+00  0.00000000E+00
  0.00000000E+00  0.00000000E+00  0.00000000E+00
  0.00000000E+00  0.00000000E+00  0.00000000E+00
  0.00000000E+00  0.00000000E+00  0.00000000E+00
  0.00000000E+00  0.00000000E+00  0.00000000E+00
  0.00000000E+00  0.00000000E+00  0.00000000E+00
  0.00000000E+00  0.00000000E+00  0.00000000E+00
  0.00000000E+00  0.00000000E+00  0.00000000E+00
  0.00000000E+00  0.00000000E+00  0.00000000E+00
  0.00000000E+00  0.00000000E+00  0.00000000E+00
  0.00000000E+00  0.00000000E+00  0.00000000E+00
  0.00000000E+00  0.00000000E+00  0.00000000E+00
  0.00000000E+00  0.00000000E+00  0.00000000E+00
  0.00000000E+00  0.00000000E+00  0.00000000E+00
  0.00000000E+00  0.00000000E+00  0.00000000E+00
  0.00000000E+00  0.00000000E+00  0.00000000E+00
  0.00000000E+00  0.00000000E+00  0.00000000E+00
  0.00000000E+00  0.00000000E+00  0.00000000E+00
  0.00000000E+00  0.00000000E+00  0.00000000E+00
  0.00000000E+00  0.00000000E+00  0.00000000E+00
  0.00000000E+00  0.00000000E+00  0.00000000E+00
  0.00000000E+00  0.00000000E+00  0.00000000E+00
  0.00000000E+00  0.00000000E+00  0.00000000E+00
  0.00000000E+00  0.00000000E+00  0.00000000E+00
  0.00000000E+00  0.00000000E+00  0.00000000E+00
  0.00000000E+00  0.00000000E+00  0.00000000E+00
  0.00000000E+00  0.00000000E+00  0.00000000E+00
  0.00000000E+00  0.00000000E+00  0.00000000E+00
  0.00000000E+00  0.00000000E+00  0.00000000E+00
  0.00000000E+00  0.00000000E+00  0.00000000E+00
  0.00000000E+00  0.00000000E+00  0.00000000E+00
