ortho_FA1000MA0000Cs0000                
   1.00000000000000     
    11.7259266668638862   -0.3468953896055634    0.3056615864977091
    -0.3231122153292478    9.4398957624563735   -0.1322097497289547
     0.5134171914614741   -0.2402220852304751   18.8986591888846647
   Pb   I    Cs   C    N    H 
     8    24     0     8    16    40
Direct
  0.1522021330351373  0.1177693576592612  0.4347270260264369
  0.1539365261836489  0.6300914084701371  0.4417310112023857
  0.8490169965136277  0.3520936094077357  0.5548434825660055
  0.8372522513276445  0.8524166328167952  0.5555894171149858
  0.3540983469761512  0.3626473417808867  0.9481931982861314
  0.3640364094276710  0.8659597333773298  0.9391353102981167
  0.6622682784696060  0.1253455210310903  0.0443154345339195
  0.6625582961145994  0.6182407061653081  0.0509495353556993
  0.1996835835811419  0.0964072652479081  0.0083419929969772
  0.1804539960345520  0.6196099146727145  0.9926749922781544
  0.8249119078407824  0.3814280553056040  0.9801372092599091
  0.8190076671717235  0.8791646704223353  0.9792736107931688
  0.3244055273273079  0.3802069142660646  0.4805415190635133
  0.3189772911590696  0.8976005826989194  0.4925038477227965
  0.6834373423233678  0.0979653745208957  0.4927511344963741
  0.6627326055074367  0.5859380639096836  0.5103743061718587
  0.2793629497125646  0.1058154347606940  0.2871585629896445
  0.2917724691448261  0.6417865290195605  0.2982185458085404
  0.7287356585709425  0.3358259357150056  0.7054328119407175
  0.7086143423163519  0.8263259650020024  0.7011245128616840
  0.2390612001506903  0.3483918521904274  0.8031585881932501
  0.2437130818343109  0.8610255576649634  0.7957341775095570
  0.7912860368320046  0.1159511299465529  0.1845146163261976
  0.7831511674918584  0.6116080066821866  0.1931013630646534
  0.0171785137381509  0.1195475773867388  0.6005263477541203
  0.0184962911129112  0.6268905353998556  0.6039378881403504
  0.9808551874977107  0.3616958544224355  0.3931711828281123
  0.9742881173091523  0.8472347051103069  0.3904089308939201
  0.4816098060677947  0.3625743146479614  0.1032425773478832
  0.4851594755397923  0.8608670051917985  0.0971956422631842
  0.5341640227677784  0.1358264085437735  0.8880548188834753
  0.5339033908724041  0.6140778476408049  0.8900898007573002
  0.5583108545610046  0.8646946842830590  0.3379869601912039
  0.0823642143315001  0.8753420133153355  0.1719439627380603
  0.0743300249738563  0.4194836709794477  0.1608278766677547
  0.9382884056269567  0.1474238735387150  0.8302887376081253
  0.3999102274528642  0.6033739266558098  0.6830326168424777
  0.5859204319906700  0.3603616296794843  0.3424911539348928
  0.4087557501851041  0.1149705515557152  0.6784927747979187
  0.9348019161583082  0.6451698054404764  0.8361742812788603
  0.6404428129433180  0.7789541012947252  0.3458809365875345
  0.5554994179623244  0.9534286593790733  0.2860179090056129
  0.1823183837495649  0.8228345390932035  0.1582487619119828
  0.0038254886310553  0.8841087623804340  0.1255861842508666
  0.1307888065241870  0.3690845417057455  0.2115535212724233
  0.0281713376587575  0.3442414003821255  0.1092746091312147
  0.0250251651320437  0.0867850933028971  0.8549244857501433
  0.8466062722510933  0.0826259379342714  0.8049814216424819
  0.4892765736291988  0.5287101284300075  0.6884867549447344
  0.3773901745431144  0.6697463370616494  0.6257185061828011
  0.6949368166987452  0.3449900639960571  0.3271920875003377
  0.5161394492307595  0.4116560297407419  0.2990812667569187
  0.5025419980991854  0.0587705651139392  0.6537939519709438
  0.3406195451639214  0.1842784373608304  0.6407361093928652
  0.0261607959603267  0.5905245356341462  0.8063937869927280
  0.8288609093566973  0.6035421579866143  0.8244061719168672
  0.4868842955805898  0.8626950181112786  0.3778318185256151
  0.6384676009035016  0.7173481655283035  0.3898256099943855
  0.7050855199944656  0.7659322432338019  0.3078343918293598
  0.6217464800661878  0.9693900388550600  0.2484360595814948
  0.4839754545391254  0.0096357684028789  0.2822902880845082
  0.0635843904482387  0.9148017500201073  0.2259403706168353
  0.2376938266684995  0.8191634052631003  0.1981658379045143
  0.2056215868834256  0.7808196928706400  0.1092873011559350
  0.0146208252991162  0.8507517576948150  0.0739730847035955
  0.9281037799465425  0.9284872075530510  0.1407624953500690
  0.0646605295161731  0.5336465013922469  0.1618587225527183
  0.1698809864968275  0.4390779930989966  0.2468835113448293
  0.1478172363198896  0.2644816373487598  0.2156672170268295
  0.0348443191301472  0.2373305614652100  0.1038079934534615
  0.9809497748838565  0.3899462738755475  0.0728753600142063
  0.9422603176245047  0.2630965424166742  0.8323666676097021
  0.0951299961187924  0.1490953313707160  0.8692346070641083
  0.0354559049062934  0.9805496608008980  0.8514127000314048
  0.8349346589096845  0.9754031207413494  0.7963999952924417
  0.7892626101348419  0.1430272320273298  0.7820940331409523
  0.3401956435926861  0.6111636188077538  0.7291702643093646
  0.5036231202281530  0.4860312602385859  0.7359379186380407
  0.5530051844862142  0.5240873716179216  0.6494166074760244
  0.4291452485406514  0.6672438614226927  0.5805738602224940
  0.3066653360516035  0.7268033200218563  0.6251379701162715
  0.5502411493300592  0.3284499525536164  0.3946797726659198
  0.7446394354330204  0.3046539330347913  0.3634993920746457
  0.7340237742874157  0.3775863247637852  0.2799847723682289
  0.5421320759244017  0.4425852076956274  0.2490163286335501
  0.4327454593871622  0.4253952693448544  0.3150776093413989
  0.3837987846690856  0.1030852486349463  0.7346391049252218
  0.5520051491480867  0.0062355684324614  0.6864542947427001
  0.5349632048309748  0.0701221029804033  0.6024955315324951
  0.3546921052203577  0.2033375063103842  0.5877992978592431
  0.2706668506206860  0.2252197366363208  0.6661532516653044
  0.9481030479857109  0.7321278034341152  0.8748709795283023
  0.1053487814308608  0.6379231828649222  0.8160080753723906
  0.0231797465643784  0.5097372783519647  0.7696566199820789
  0.8066710074468832  0.5236047836208878  0.7882663634123044
  0.7631563472715164  0.6501501558253318  0.8518409452391257
 
  0.00000000E+00  0.00000000E+00  0.00000000E+00
  0.00000000E+00  0.00000000E+00  0.00000000E+00
  0.00000000E+00  0.00000000E+00  0.00000000E+00
  0.00000000E+00  0.00000000E+00  0.00000000E+00
  0.00000000E+00  0.00000000E+00  0.00000000E+00
  0.00000000E+00  0.00000000E+00  0.00000000E+00
  0.00000000E+00  0.00000000E+00  0.00000000E+00
  0.00000000E+00  0.00000000E+00  0.00000000E+00
  0.00000000E+00  0.00000000E+00  0.00000000E+00
  0.00000000E+00  0.00000000E+00  0.00000000E+00
  0.00000000E+00  0.00000000E+00  0.00000000E+00
  0.00000000E+00  0.00000000E+00  0.00000000E+00
  0.00000000E+00  0.00000000E+00  0.00000000E+00
  0.00000000E+00  0.00000000E+00  0.00000000E+00
  0.00000000E+00  0.00000000E+00  0.00000000E+00
  0.00000000E+00  0.00000000E+00  0.00000000E+00
  0.00000000E+00  0.00000000E+00  0.00000000E+00
  0.00000000E+00  0.00000000E+00  0.00000000E+00
  0.00000000E+00  0.00000000E+00  0.00000000E+00
  0.00000000E+00  0.00000000E+00  0.00000000E+00
  0.00000000E+00  0.00000000E+00  0.00000000E+00
  0.00000000E+00  0.00000000E+00  0.00000000E+00
  0.00000000E+00  0.00000000E+00  0.00000000E+00
  0.00000000E+00  0.00000000E+00  0.00000000E+00
  0.00000000E+00  0.00000000E+00  0.00000000E+00
  0.00000000E+00  0.00000000E+00  0.00000000E+00
  0.00000000E+00  0.00000000E+00  0.00000000E+00
  0.00000000E+00  0.00000000E+00  0.00000000E+00
  0.00000000E+00  0.00000000E+00  0.00000000E+00
  0.00000000E+00  0.00000000E+00  0.00000000E+00
  0.00000000E+00  0.00000000E+00  0.00000000E+00
  0.00000000E+00  0.00000000E+00  0.00000000E+00
  0.00000000E+00  0.00000000E+00  0.00000000E+00
  0.00000000E+00  0.00000000E+00  0.00000000E+00
  0.00000000E+00  0.00000000E+00  0.00000000E+00
  0.00000000E+00  0.00000000E+00  0.00000000E+00
  0.00000000E+00  0.00000000E+00  0.00000000E+00
  0.00000000E+00  0.00000000E+00  0.00000000E+00
  0.00000000E+00  0.00000000E+00  0.00000000E+00
  0.00000000E+00  0.00000000E+00  0.00000000E+00
  0.00000000E+00  0.00000000E+00  0.00000000E+00
  0.00000000E+00  0.00000000E+00  0.00000000E+00
  0.00000000E+00  0.00000000E+00  0.00000000E+00
  0.00000000E+00  0.00000000E+00  0.00000000E+00
  0.00000000E+00  0.00000000E+00  0.00000000E+00
  0.00000000E+00  0.00000000E+00  0.00000000E+00
  0.00000000E+00  0.00000000E+00  0.00000000E+00
  0.00000000E+00  0.00000000E+00  0.00000000E+00
  0.00000000E+00  0.00000000E+00  0.00000000E+00
  0.00000000E+00  0.00000000E+00  0.00000000E+00
  0.00000000E+00  0.00000000E+00  0.00000000E+00
  0.00000000E+00  0.00000000E+00  0.00000000E+00
  0.00000000E+00  0.00000000E+00  0.00000000E+00
  0.00000000E+00  0.00000000E+00  0.00000000E+00
  0.00000000E+00  0.00000000E+00  0.00000000E+00
  0.00000000E+00  0.00000000E+00  0.00000000E+00
  0.00000000E+00  0.00000000E+00  0.00000000E+00
  0.00000000E+00  0.00000000E+00  0.00000000E+00
  0.00000000E+00  0.00000000E+00  0.00000000E+00
  0.00000000E+00  0.00000000E+00  0.00000000E+00
  0.00000000E+00  0.00000000E+00  0.00000000E+00
  0.00000000E+00  0.00000000E+00  0.00000000E+00
  0.00000000E+00  0.00000000E+00  0.00000000E+00
  0.00000000E+00  0.00000000E+00  0.00000000E+00
  0.00000000E+00  0.00000000E+00  0.00000000E+00
  0.00000000E+00  0.00000000E+00  0.00000000E+00
  0.00000000E+00  0.00000000E+00  0.00000000E+00
  0.00000000E+00  0.00000000E+00  0.00000000E+00
  0.00000000E+00  0.00000000E+00  0.00000000E+00
  0.00000000E+00  0.00000000E+00  0.00000000E+00
  0.00000000E+00  0.00000000E+00  0.00000000E+00
  0.00000000E+00  0.00000000E+00  0.00000000E+00
  0.00000000E+00  0.00000000E+00  0.00000000E+00
  0.00000000E+00  0.00000000E+00  0.00000000E+00
  0.00000000E+00  0.00000000E+00  0.00000000E+00
  0.00000000E+00  0.00000000E+00  0.00000000E+00
  0.00000000E+00  0.00000000E+00  0.00000000E+00
  0.00000000E+00  0.00000000E+00  0.00000000E+00
  0.00000000E+00  0.00000000E+00  0.00000000E+00
  0.00000000E+00  0.00000000E+00  0.00000000E+00
  0.00000000E+00  0.00000000E+00  0.00000000E+00
  0.00000000E+00  0.00000000E+00  0.00000000E+00
  0.00000000E+00  0.00000000E+00  0.00000000E+00
  0.00000000E+00  0.00000000E+00  0.00000000E+00
  0.00000000E+00  0.00000000E+00  0.00000000E+00
  0.00000000E+00  0.00000000E+00  0.00000000E+00
  0.00000000E+00  0.00000000E+00  0.00000000E+00
  0.00000000E+00  0.00000000E+00  0.00000000E+00
  0.00000000E+00  0.00000000E+00  0.00000000E+00
  0.00000000E+00  0.00000000E+00  0.00000000E+00
  0.00000000E+00  0.00000000E+00  0.00000000E+00
  0.00000000E+00  0.00000000E+00  0.00000000E+00
  0.00000000E+00  0.00000000E+00  0.00000000E+00
  0.00000000E+00  0.00000000E+00  0.00000000E+00
  0.00000000E+00  0.00000000E+00  0.00000000E+00
  0.00000000E+00  0.00000000E+00  0.00000000E+00
