cubic_FA0875MA0000Cs0125                
   1.00000000000000     
    12.8160328570719724   -0.2803707336264202    0.1741164035993248
    -0.2785427842419780   12.7033481884432007   -0.1947560529477382
     0.1733535212125066   -0.1955855329021482   12.7066324442590801
   Cs   I    Pb   C    N    H 
     1    24     8     7    14    35
Direct
  0.7554566168275696  0.7555615876226661  0.2328665832508902
  0.9922072182313970  0.0005905196374311  0.2399175502182624
  0.9933782864685144  0.9832785046634825  0.7399753771943974
  0.0029901057259304  0.5217190813329107  0.2370265503100991
  0.0053227289588045  0.4988472294289675  0.7360306253171154
  0.5123512985294408  0.9957076411988561  0.2352022018095475
  0.5180096651837396  0.0106434919322831  0.7341595517153242
  0.5131479722326530  0.5305972567743745  0.2333630527912815
  0.5039660904946291  0.4961890339797045  0.7316899366819209
  0.0059325224013852  0.2468284035611197  0.9824332167205710
  0.9987817837783786  0.2564004327086953  0.4739592380171682
  0.9920866891559826  0.7473521070183780  0.0007980127522002
  0.9637260589852304  0.7552698673637294  0.4729354720820131
  0.5092762100168658  0.2493884525602596  0.9815013640475115
  0.4764746791252638  0.2579140463804556  0.4686973503550981
  0.5228861208373848  0.7485429832600896  0.9728948882686469
  0.5096791413474611  0.7599140707593024  0.4851615875963431
  0.2486758666612913  0.5274646050925222  0.4851972234923894
  0.2592639339253355  0.4819292088665275  0.9972806594062356
  0.2491796359929059  0.9801322723520243  0.4898005651160292
  0.2568704990393995  0.9916373195395021  0.0040797277930033
  0.7469931874106016  0.4945660787203163  0.4815329393992975
  0.7595776854235838  0.4782758748545300  0.0059048090863194
  0.7496627337157361  0.0136365432762349  0.4823590918757424
  0.7578486524417510  0.9985403449228509  0.9930969844516495
  0.5098652847542025  0.9976548112197862  0.9846239035717061
  0.5025331249828607  0.0070639349132876  0.4861464552655467
  0.5069562514707949  0.5008596280124000  0.9815526761465568
  0.4956968730573301  0.5118158384173377  0.4817549506453762
  0.0072366551249601  0.9948153220373376  0.9903789071782639
  0.0017488912218453  0.9997188874624832  0.4907144388101012
  0.0083523233923723  0.4993601061956845  0.9865761325285202
  0.0011133762095389  0.5108502147594233  0.4851867845410726
  0.7470776858652142  0.2529409978211938  0.7576118637303120
  0.7525440340789340  0.7679225622554876  0.7504020105013679
  0.2343052214346128  0.2496017066164689  0.7593285480094566
  0.2478454607672898  0.7229456017485157  0.2451571776179776
  0.7462037052758789  0.2518598928167468  0.2729600647729641
  0.2525942134016751  0.7461710948813992  0.7639860205762223
  0.2481417323515286  0.2488388795467797  0.2687231578616195
  0.8416379961054739  0.2201973871333905  0.7387803278869491
  0.6906432674913300  0.2981554523585442  0.6886505081177815
  0.7880550129624840  0.6975203565771830  0.8123453951808175
  0.7318439862025911  0.7506416834290894  0.6506828296344328
  0.2871141920887132  0.1669557735434832  0.7799649910318626
  0.2519984923300012  0.3105593505180121  0.6783937982383914
  0.3456338608618824  0.7572182215313165  0.2375145234031860
  0.1660753620315176  0.7813478046644510  0.2419247920541699
  0.8399799609502427  0.2472552076093746  0.2295794543846645
  0.6609037275116901  0.2721987100383472  0.2241724311514734
  0.3522751935376343  0.7374036706876121  0.7409391675562972
  0.1840214744309394  0.7809082530482514  0.6998745076831528
  0.3403082922218387  0.2490056498429012  0.2211553768614699
  0.1600499327521214  0.2693381712483194  0.2253605963240229
  0.7122889590255751  0.2414280275462489  0.8361949225736253
  0.8807159960526812  0.1864351674531234  0.7970003137497118
  0.8796145735179098  0.2284358182906508  0.6673443381079857
  0.7193721615004290  0.3190984369192069  0.6159057848517490
  0.6208883183958143  0.3293092518007456  0.7117970792084256
  0.7389269105873455  0.8459700677631534  0.7850797098514850
  0.8073816565202641  0.7187741504376347  0.8877395721086989
  0.8076338530231451  0.6237785474384608  0.7865119031762819
  0.7427587908645228  0.6796321347161300  0.6118768849905080
  0.7061930966714335  0.8100872194563815  0.6071542164785978
  0.1700295947374217  0.2690733271776420  0.8138783400890578
  0.2681313352469950  0.1239778833251816  0.8455274482666190
  0.3501813024044842  0.1423794305003273  0.7358307071636969
  0.3112947549947878  0.2991468505773204  0.6240391673979281
  0.2079231605412317  0.3746275149462985  0.6696241460089547
  0.2323319543301600  0.6386190139883042  0.2554477179836138
  0.4028522833129967  0.7035389313342197  0.2408491149007202
  0.3692417353359166  0.8351076891313179  0.2304434082273391
  0.1701947781707276  0.8610422671037243  0.2325920448110645
  0.0935229892426621  0.7456825998942745  0.2496852569318380
  0.7385598106632031  0.2366255413794978  0.3569282600598943
  0.8995537940732347  0.2288291611039024  0.2766522640513331
  0.8568897659058083  0.2584371235432280  0.1513005886486063
  0.6583250935138060  0.2863729719368258  0.1453549752076002
  0.5929790490702604  0.2746295290356170  0.2676035315424914
  0.2244347618246741  0.7221767117752548  0.8418031943744095
  0.4011566300415679  0.7136653814861702  0.7971773318044285
  0.3855462454047973  0.7564285342698550  0.6691627445357196
  0.2052044449550401  0.8127080431839460  0.6286217491856466
  0.1089952699646276  0.7910021466838558  0.7258798015768195
  0.2445698557764640  0.2295404855616529  0.3520509634085499
  0.4023335082089329  0.2311050360336781  0.2651091982283210
  0.3541339120120525  0.2647631939495046  0.1432892176103894
  0.1539413253741892  0.2876892337516146  0.1479924841426873
  0.0940060575724836  0.2676151002175339  0.2721958041402031
 
  0.00000000E+00  0.00000000E+00  0.00000000E+00
  0.00000000E+00  0.00000000E+00  0.00000000E+00
  0.00000000E+00  0.00000000E+00  0.00000000E+00
  0.00000000E+00  0.00000000E+00  0.00000000E+00
  0.00000000E+00  0.00000000E+00  0.00000000E+00
  0.00000000E+00  0.00000000E+00  0.00000000E+00
  0.00000000E+00  0.00000000E+00  0.00000000E+00
  0.00000000E+00  0.00000000E+00  0.00000000E+00
  0.00000000E+00  0.00000000E+00  0.00000000E+00
  0.00000000E+00  0.00000000E+00  0.00000000E+00
  0.00000000E+00  0.00000000E+00  0.00000000E+00
  0.00000000E+00  0.00000000E+00  0.00000000E+00
  0.00000000E+00  0.00000000E+00  0.00000000E+00
  0.00000000E+00  0.00000000E+00  0.00000000E+00
  0.00000000E+00  0.00000000E+00  0.00000000E+00
  0.00000000E+00  0.00000000E+00  0.00000000E+00
  0.00000000E+00  0.00000000E+00  0.00000000E+00
  0.00000000E+00  0.00000000E+00  0.00000000E+00
  0.00000000E+00  0.00000000E+00  0.00000000E+00
  0.00000000E+00  0.00000000E+00  0.00000000E+00
  0.00000000E+00  0.00000000E+00  0.00000000E+00
  0.00000000E+00  0.00000000E+00  0.00000000E+00
  0.00000000E+00  0.00000000E+00  0.00000000E+00
  0.00000000E+00  0.00000000E+00  0.00000000E+00
  0.00000000E+00  0.00000000E+00  0.00000000E+00
  0.00000000E+00  0.00000000E+00  0.00000000E+00
  0.00000000E+00  0.00000000E+00  0.00000000E+00
  0.00000000E+00  0.00000000E+00  0.00000000E+00
  0.00000000E+00  0.00000000E+00  0.00000000E+00
  0.00000000E+00  0.00000000E+00  0.00000000E+00
  0.00000000E+00  0.00000000E+00  0.00000000E+00
  0.00000000E+00  0.00000000E+00  0.00000000E+00
  0.00000000E+00  0.00000000E+00  0.00000000E+00
  0.00000000E+00  0.00000000E+00  0.00000000E+00
  0.00000000E+00  0.00000000E+00  0.00000000E+00
  0.00000000E+00  0.00000000E+00  0.00000000E+00
  0.00000000E+00  0.00000000E+00  0.00000000E+00
  0.00000000E+00  0.00000000E+00  0.00000000E+00
  0.00000000E+00  0.00000000E+00  0.00000000E+00
  0.00000000E+00  0.00000000E+00  0.00000000E+00
  0.00000000E+00  0.00000000E+00  0.00000000E+00
  0.00000000E+00  0.00000000E+00  0.00000000E+00
  0.00000000E+00  0.00000000E+00  0.00000000E+00
  0.00000000E+00  0.00000000E+00  0.00000000E+00
  0.00000000E+00  0.00000000E+00  0.00000000E+00
  0.00000000E+00  0.00000000E+00  0.00000000E+00
  0.00000000E+00  0.00000000E+00  0.00000000E+00
  0.00000000E+00  0.00000000E+00  0.00000000E+00
  0.00000000E+00  0.00000000E+00  0.00000000E+00
  0.00000000E+00  0.00000000E+00  0.00000000E+00
  0.00000000E+00  0.00000000E+00  0.00000000E+00
  0.00000000E+00  0.00000000E+00  0.00000000E+00
  0.00000000E+00  0.00000000E+00  0.00000000E+00
  0.00000000E+00  0.00000000E+00  0.00000000E+00
  0.00000000E+00  0.00000000E+00  0.00000000E+00
  0.00000000E+00  0.00000000E+00  0.00000000E+00
  0.00000000E+00  0.00000000E+00  0.00000000E+00
  0.00000000E+00  0.00000000E+00  0.00000000E+00
  0.00000000E+00  0.00000000E+00  0.00000000E+00
  0.00000000E+00  0.00000000E+00  0.00000000E+00
  0.00000000E+00  0.00000000E+00  0.00000000E+00
  0.00000000E+00  0.00000000E+00  0.00000000E+00
  0.00000000E+00  0.00000000E+00  0.00000000E+00
  0.00000000E+00  0.00000000E+00  0.00000000E+00
  0.00000000E+00  0.00000000E+00  0.00000000E+00
  0.00000000E+00  0.00000000E+00  0.00000000E+00
  0.00000000E+00  0.00000000E+00  0.00000000E+00
  0.00000000E+00  0.00000000E+00  0.00000000E+00
  0.00000000E+00  0.00000000E+00  0.00000000E+00
  0.00000000E+00  0.00000000E+00  0.00000000E+00
  0.00000000E+00  0.00000000E+00  0.00000000E+00
  0.00000000E+00  0.00000000E+00  0.00000000E+00
  0.00000000E+00  0.00000000E+00  0.00000000E+00
  0.00000000E+00  0.00000000E+00  0.00000000E+00
  0.00000000E+00  0.00000000E+00  0.00000000E+00
  0.00000000E+00  0.00000000E+00  0.00000000E+00
  0.00000000E+00  0.00000000E+00  0.00000000E+00
  0.00000000E+00  0.00000000E+00  0.00000000E+00
  0.00000000E+00  0.00000000E+00  0.00000000E+00
  0.00000000E+00  0.00000000E+00  0.00000000E+00
  0.00000000E+00  0.00000000E+00  0.00000000E+00
  0.00000000E+00  0.00000000E+00  0.00000000E+00
  0.00000000E+00  0.00000000E+00  0.00000000E+00
  0.00000000E+00  0.00000000E+00  0.00000000E+00
  0.00000000E+00  0.00000000E+00  0.00000000E+00
  0.00000000E+00  0.00000000E+00  0.00000000E+00
  0.00000000E+00  0.00000000E+00  0.00000000E+00
  0.00000000E+00  0.00000000E+00  0.00000000E+00
  0.00000000E+00  0.00000000E+00  0.00000000E+00
