cubic_FA0375MA0500Cs0125kicked          
   1.00000000000000     
    12.6619293283870977   -0.1405338700317243    0.0786514900741138
    -0.1403976411325914   12.6846873881911630   -0.0996984883173889
     0.0773906714169654   -0.0985942730670818   12.6712095072579949
   Cs   I    Pb   C    N    H 
     1    24     8     7    10    39
Direct
  0.7459270573525514  0.7502681278544333  0.7552702804757815
  0.0436916035158820  0.0202149914330151  0.2423532182707057
  0.9947935626753580  0.9551935702233926  0.7411317414499599
  0.0374968860588948  0.4664127313290706  0.2391458705662768
  0.9617389212363571  0.5178709968792045  0.7398415493340276
  0.4947569341446324  0.0061561345150467  0.2497658806675890
  0.5427658856731511  0.9933678581551031  0.7496459139012041
  0.4771605130160558  0.4824978486398408  0.2491138312696597
  0.5246199868244432  0.5243038799399993  0.7503453082374285
  0.0038580651331773  0.2414895937611984  0.9605332707059074
  0.0158504305618164  0.2431454738077942  0.5287232768958424
  0.0566240624326854  0.7430279870094189  0.9924551963919401
  0.9851616572813235  0.7421204756330785  0.4835745472612453
  0.5448119131145928  0.2559566880748990  0.0139390217262976
  0.4904036898848396  0.2513269018365610  0.4999488450050301
  0.4698150005324588  0.7545514458595861  0.0103973463280204
  0.5464278971975361  0.7516395132063567  0.4980000443696753
  0.2502980333037176  0.5209264868225321  0.5386181543986196
  0.2605932193189916  0.4777504409472344  0.9726977677560206
  0.2531193439504393  0.9848077547123494  0.5305715005392427
  0.2639887603728057  0.0428710068716053  0.9778933126266691
  0.7523490096360468  0.4612178106106786  0.4554509724476704
  0.7609430833287657  0.5537466203071409  0.0134951951507544
  0.7572434315528390  0.0290033930645777  0.4573950168935928
  0.7633216258215040  0.9704576966183630  0.0012008329759345
  0.5110471869925332  0.0048430445646703  0.9972771333013408
  0.5050869736002570  0.0020646733904578  0.5030158470047119
  0.5094882034889304  0.5067582040702047  0.0008779559321685
  0.5065311141771496  0.5039387884485946  0.4986096576201741
  0.0107029451866209  0.9901795968353085  0.9935441374323741
  0.0022456220148407  0.9949417551851812  0.4874911405500572
  0.0093670629278645  0.4945184446399044  0.9874882175571101
  0.0017453145777312  0.4906825724519902  0.4914563474248863
  0.7598757322295837  0.7673960059540188  0.2716953463835943
  0.2364799767425284  0.7673222232586658  0.2805932647173613
  0.7365449761065271  0.2376172529876385  0.7665474765751044
  0.7945629042658866  0.2503997955067437  0.2222480539468102
  0.2731983386850839  0.2399401652709235  0.2768559403746614
  0.2941672579658272  0.2608267680004345  0.7501215966417256
  0.2886211823750123  0.7737052773872325  0.7488487997267016
  0.8456427869252784  0.7205862260595757  0.2378082376599830
  0.6744885870897254  0.7789365685509191  0.2158610997618654
  0.2857967057220429  0.6796027215829773  0.2989994367901657
  0.2543356768708606  0.8286224979553531  0.1997802962077931
  0.8139109427244775  0.1742105824479208  0.7421718403604675
  0.7115506858307556  0.3202931502609430  0.7122234842284240
  0.6850623355770814  0.2428069618229347  0.2665778271596093
  0.2338234329289777  0.2696522074445614  0.1711760748496413
  0.1954778928461124  0.1959482853545429  0.7373635521385252
  0.1818598568395038  0.7260369387379139  0.7289858775434297
  0.7598218553323732  0.7996727691353276  0.3522222179042923
  0.9064088028889997  0.7128263990572993  0.2894299594051645
  0.8497397071534304  0.6845046724389829  0.1649450156882088
  0.6685416773612949  0.7528556755017178  0.1394031746762023
  0.6130604368261593  0.8214534732481131  0.2460300251712422
  0.1750380897350289  0.7905740059730445  0.3373130112063022
  0.2674884656295408  0.6375239707213149  0.3655006223984115
  0.3442578027680179  0.6499090641663348  0.2512119212945196
  0.3102915936956383  0.8126320136815822  0.1425950764515848
  0.2107030334093336  0.8951727333230595  0.1934372801810679
  0.6896341691883940  0.2208215843780092  0.8377158717885432
  0.8286057776962605  0.1113034420180824  0.7883555485298397
  0.8635508538818947  0.1868208174288349  0.6788019364990163
  0.7492796654898890  0.3417091080541679  0.6435332431924996
  0.6505287915197552  0.3673558232370542  0.7363471700121632
  0.6294302534220657  0.2495952140290965  0.2071422869158925
  0.6725772028982596  0.3018745705629957  0.3229902890052329
  0.6712773000652287  0.1711760458715101  0.3035744382339914
  0.8058583850852600  0.3276785123381595  0.1858370989060418
  0.8502367230339267  0.2417425785719886  0.2868553545236129
  0.8051702317187616  0.1873646152158242  0.1631629518704933
  0.1618848927654374  0.3077403825641263  0.1781213317034459
  0.2243404456450507  0.2044769334516498  0.1208738587232331
  0.2847464709753438  0.3222891021712744  0.1331583000810835
  0.2141602837787517  0.1876851140147742  0.3141477644350253
  0.3479861661217525  0.1990773922696648  0.2663695462592690
  0.2854663704041321  0.3116635010724530  0.3247541722657286
  0.1487319646606612  0.2237339592597739  0.6767628234152198
  0.1493423302187022  0.1962876433553251  0.8060699545675605
  0.2114352136214980  0.1183511640860317  0.7170888032068603
  0.2729778027135450  0.3426794933006864  0.7667276317567997
  0.3381599931157381  0.2302162963236798  0.8164786116076076
  0.3410961701679911  0.2557803907766243  0.6770136634172003
  0.1364651631982690  0.7747151042608534  0.6838294605850107
  0.1401589555055963  0.7142095904173701  0.7995633707355181
  0.1876525487314979  0.6541363024901972  0.6883522415486270
  0.2794771639790404  0.8518786282456713  0.7853450992841439
  0.3306487919314448  0.7224814573511478  0.8021057992022392
  0.3311275613051778  0.7806815219441474  0.6733919375035458
 
  0.00000000E+00  0.00000000E+00  0.00000000E+00
  0.00000000E+00  0.00000000E+00  0.00000000E+00
  0.00000000E+00  0.00000000E+00  0.00000000E+00
  0.00000000E+00  0.00000000E+00  0.00000000E+00
  0.00000000E+00  0.00000000E+00  0.00000000E+00
  0.00000000E+00  0.00000000E+00  0.00000000E+00
  0.00000000E+00  0.00000000E+00  0.00000000E+00
  0.00000000E+00  0.00000000E+00  0.00000000E+00
  0.00000000E+00  0.00000000E+00  0.00000000E+00
  0.00000000E+00  0.00000000E+00  0.00000000E+00
  0.00000000E+00  0.00000000E+00  0.00000000E+00
  0.00000000E+00  0.00000000E+00  0.00000000E+00
  0.00000000E+00  0.00000000E+00  0.00000000E+00
  0.00000000E+00  0.00000000E+00  0.00000000E+00
  0.00000000E+00  0.00000000E+00  0.00000000E+00
  0.00000000E+00  0.00000000E+00  0.00000000E+00
  0.00000000E+00  0.00000000E+00  0.00000000E+00
  0.00000000E+00  0.00000000E+00  0.00000000E+00
  0.00000000E+00  0.00000000E+00  0.00000000E+00
  0.00000000E+00  0.00000000E+00  0.00000000E+00
  0.00000000E+00  0.00000000E+00  0.00000000E+00
  0.00000000E+00  0.00000000E+00  0.00000000E+00
  0.00000000E+00  0.00000000E+00  0.00000000E+00
  0.00000000E+00  0.00000000E+00  0.00000000E+00
  0.00000000E+00  0.00000000E+00  0.00000000E+00
  0.00000000E+00  0.00000000E+00  0.00000000E+00
  0.00000000E+00  0.00000000E+00  0.00000000E+00
  0.00000000E+00  0.00000000E+00  0.00000000E+00
  0.00000000E+00  0.00000000E+00  0.00000000E+00
  0.00000000E+00  0.00000000E+00  0.00000000E+00
  0.00000000E+00  0.00000000E+00  0.00000000E+00
  0.00000000E+00  0.00000000E+00  0.00000000E+00
  0.00000000E+00  0.00000000E+00  0.00000000E+00
  0.00000000E+00  0.00000000E+00  0.00000000E+00
  0.00000000E+00  0.00000000E+00  0.00000000E+00
  0.00000000E+00  0.00000000E+00  0.00000000E+00
  0.00000000E+00  0.00000000E+00  0.00000000E+00
  0.00000000E+00  0.00000000E+00  0.00000000E+00
  0.00000000E+00  0.00000000E+00  0.00000000E+00
  0.00000000E+00  0.00000000E+00  0.00000000E+00
  0.00000000E+00  0.00000000E+00  0.00000000E+00
  0.00000000E+00  0.00000000E+00  0.00000000E+00
  0.00000000E+00  0.00000000E+00  0.00000000E+00
  0.00000000E+00  0.00000000E+00  0.00000000E+00
  0.00000000E+00  0.00000000E+00  0.00000000E+00
  0.00000000E+00  0.00000000E+00  0.00000000E+00
  0.00000000E+00  0.00000000E+00  0.00000000E+00
  0.00000000E+00  0.00000000E+00  0.00000000E+00
  0.00000000E+00  0.00000000E+00  0.00000000E+00
  0.00000000E+00  0.00000000E+00  0.00000000E+00
  0.00000000E+00  0.00000000E+00  0.00000000E+00
  0.00000000E+00  0.00000000E+00  0.00000000E+00
  0.00000000E+00  0.00000000E+00  0.00000000E+00
  0.00000000E+00  0.00000000E+00  0.00000000E+00
  0.00000000E+00  0.00000000E+00  0.00000000E+00
  0.00000000E+00  0.00000000E+00  0.00000000E+00
  0.00000000E+00  0.00000000E+00  0.00000000E+00
  0.00000000E+00  0.00000000E+00  0.00000000E+00
  0.00000000E+00  0.00000000E+00  0.00000000E+00
  0.00000000E+00  0.00000000E+00  0.00000000E+00
  0.00000000E+00  0.00000000E+00  0.00000000E+00
  0.00000000E+00  0.00000000E+00  0.00000000E+00
  0.00000000E+00  0.00000000E+00  0.00000000E+00
  0.00000000E+00  0.00000000E+00  0.00000000E+00
  0.00000000E+00  0.00000000E+00  0.00000000E+00
  0.00000000E+00  0.00000000E+00  0.00000000E+00
  0.00000000E+00  0.00000000E+00  0.00000000E+00
  0.00000000E+00  0.00000000E+00  0.00000000E+00
  0.00000000E+00  0.00000000E+00  0.00000000E+00
  0.00000000E+00  0.00000000E+00  0.00000000E+00
  0.00000000E+00  0.00000000E+00  0.00000000E+00
  0.00000000E+00  0.00000000E+00  0.00000000E+00
  0.00000000E+00  0.00000000E+00  0.00000000E+00
  0.00000000E+00  0.00000000E+00  0.00000000E+00
  0.00000000E+00  0.00000000E+00  0.00000000E+00
  0.00000000E+00  0.00000000E+00  0.00000000E+00
  0.00000000E+00  0.00000000E+00  0.00000000E+00
  0.00000000E+00  0.00000000E+00  0.00000000E+00
  0.00000000E+00  0.00000000E+00  0.00000000E+00
  0.00000000E+00  0.00000000E+00  0.00000000E+00
  0.00000000E+00  0.00000000E+00  0.00000000E+00
  0.00000000E+00  0.00000000E+00  0.00000000E+00
  0.00000000E+00  0.00000000E+00  0.00000000E+00
  0.00000000E+00  0.00000000E+00  0.00000000E+00
  0.00000000E+00  0.00000000E+00  0.00000000E+00
  0.00000000E+00  0.00000000E+00  0.00000000E+00
  0.00000000E+00  0.00000000E+00  0.00000000E+00
  0.00000000E+00  0.00000000E+00  0.00000000E+00
  0.00000000E+00  0.00000000E+00  0.00000000E+00
