cubic_FA0875MA0125Cs0000                
   1.00000000000000     
    12.7358460469623047   -0.2437215198460886    0.2968308153795253
    -0.2446190977311156   12.7220658678170651   -0.3373124978042948
     0.2940111216561918   -0.3350054559142460   12.7652275764807150
   Cs   I    Pb   C    N    H 
     0    24     8     8    15    41
Direct
  0.0067792168014109  0.9943640380847181  0.2355986723682130
  0.0135560984814835  0.9956806512010113  0.7340145789766390
  0.9942273514630772  0.4965297334503877  0.2383373849892413
  0.0259548805162009  0.4878991775035234  0.7358079325815463
  0.5095569364323528  0.9864177166723818  0.2429091580420299
  0.4863234532274719  0.9879970424325591  0.7431542003088948
  0.5290263791817373  0.4919104649275651  0.2440298672689735
  0.5159279317161901  0.4930424675418109  0.7434323391484300
  0.9765430109119865  0.2461748959842633  0.9950210224823176
 -0.0022111910643607  0.2504174009937674  0.4808127375004498
  0.0214000646714309  0.7476533309559731  0.9843664064501254
  0.9838025505117004  0.7511881063199716  0.4738717981392987
  0.5185233741833059  0.2454925697884848  0.9870896163359912
  0.5084040513503291  0.2466215194476725  0.4901365690066501
  0.4884402492307391  0.7445975091935026  0.0039186070639390
  0.4967120382403133  0.7459169692113422  0.4970205036248745
  0.2537307609572771  0.5084583239185685  0.4720935896471344
  0.2546779178179870  0.4836445130617015  0.9926434102497720
  0.2563889744172272  0.0125627441053720  0.4885737259582386
  0.2572115519138816  0.0219968352501504  0.0059332974321156
  0.7517105507398940  0.5088783150996964  0.4943530112817980
  0.7557946079136010  0.5232986228390908  0.9818970243270366
  0.7562853479208324  0.9945924145939328  0.5042570353216197
  0.7564168678856024  0.9848810933215142 -0.0025430636632052
  0.5086890423202258  0.9940752161687207  0.9929799786167622
  0.5066702922088531  0.9964021467968923  0.4902857342608926
  0.5052409313085622  0.4955666248158816  0.9922693416012077
  0.5025776042725846  0.4943785012610278  0.4969381056637841
  0.0060866839715312  0.9950797771015709  0.9828841123765611
  0.0091907144017658  0.0002329518726053  0.4835922016765735
  0.0034465135054049  0.4972513768966254  0.9874120607756105
  0.0032851719362261  0.5011357717955507  0.4873375499644431
  0.2352069114669059  0.7458975529094936  0.7568309205812027
  0.7524756406018989  0.7379355363347505  0.7636917332424774
  0.2396340080688246  0.7414268133195291  0.2594916099857965
  0.7361697260887878  0.2532524243175086  0.7508381901268628
  0.7387463125614486  0.2564323256886182  0.2571830509830895
  0.2526611167833895  0.2694309648333528  0.2590713385545508
  0.2492863036987707  0.2727618950067092  0.7527711962411422
  0.7667164922113674  0.7802740046052169  0.2150416487397420
  0.2995269487819684  0.6732315089412021  0.7798957257602896
  0.2432511475608015  0.7993678640201173  0.6714062329725929
  0.8526440054314083  0.7253227625370682  0.7394745340120218
  0.6910389150178895  0.7961883337372885  0.7128737403480002
  0.3239335776811110  0.6849488576527473  0.2546788198415283
  0.2248860919888319  0.8193025527155662  0.1990433195943126
  0.7752767639762101  0.1716387049892052  0.7919681322189078
  0.7630252296032043  0.2857516325272791  0.6571739122480421
  0.8071748424418110  0.1863778983430884  0.2770189562954076
  0.7310827849302483  0.2972357856324935  0.1657582142001395
  0.3351310201337706  0.2119085041041945  0.2666571157751720
  0.1861458863155824  0.2580022512787103  0.1834656942736137
  0.3137849801151647  0.2097880421350403  0.7935221681278393
  0.2125055113935245  0.2591736002261627  0.6584993972059759
  0.7409696964666908  0.6982665220150600  0.2927592942477011
  0.1699859813870867  0.7627876279735796  0.8136409607017049
  0.2857418837103325  0.6325632384663838  0.8468202661668092
  0.3627909387007870  0.6511237217157303  0.7326164677932260
  0.3034226464029080  0.7894254948554935  0.6159786987617918
  0.1925070833169067  0.8580722455671871  0.6620043743678994
  0.7181012682655977  0.6963506105614672  0.8306761565879494
  0.8952660237597981  0.6785072823579587  0.7828622367195294
  0.8907367776383532  0.7583136502092452  0.6759295039619464
  0.7174883140222186  0.8402324329497912  0.6512425318628742
  0.6143592740832593  0.8045267969638147  0.7373974800313061
  0.1773030889032751  0.7223003863560828  0.3181676799709898
  0.3287980163792533  0.6255514483848391  0.3051017053698350
  0.3847824521646129  0.6976703178804933  0.2009048790791286
  0.2791912968157710  0.8424917970230406  0.1426032864681696
  0.1575171024340079  0.8612158982658308  0.2080195043564081
  0.6766862758723178  0.2967576703795254  0.7980138238282123
  0.7507874308989919  0.1498861121916786  0.8654322913324104
  0.8321608070314560  0.1268771248913484  0.7542766583139897
  0.8205759150926626  0.2514962305361947  0.6093589441305448
  0.7313977512027670  0.3516805444152787  0.6307493877461341
  0.6839969472778403  0.2821426546243471  0.3213025726257696
  0.8088405144073481  0.1580660311826104  0.3502735620976006
  0.8614448575461735  0.1579212185927170  0.2220622500914374
  0.7812721593151793  0.2787252356982686  0.1029780891371555
  0.6754831913724134  0.3516622599830084  0.1576721474108461
  0.2388210117682056  0.3317648733360353  0.3201808012543152
  0.3827591041853388  0.2246421045374563  0.3291817189526450
  0.3534931206833584  0.1510796037672551  0.2142704640994759
  0.1942767714567297  0.2009417352279759  0.1240378306680936
  0.1242503998602764  0.3066285690009095  0.1825522939523459
  0.2244383819741736  0.3417498287070743  0.8012834965313590
  0.3426455627261614  0.2280468487214362  0.8659658039692748
  0.3428492637303549  0.1436678700966885  0.7546739935320987
  0.2302252562106114  0.1954762264226805  0.6088353234795622
  0.1588284632995881  0.3097431693263183  0.6352411867774516
  0.6605297496502136  0.6861862385865682  0.3059247658081770
  0.7732606036176916  0.7180055190892287  0.3645088665843471
  0.7703291520082036  0.6262423678548017  0.2675195092374357
  0.7322961181022489  0.8543337989824735  0.2444089028346502
  0.8524304908073802  0.7901536701547589  0.2062864759313657
  0.7339533786697751  0.7539050390663480  0.1399210121739378
 
  0.00000000E+00  0.00000000E+00  0.00000000E+00
  0.00000000E+00  0.00000000E+00  0.00000000E+00
  0.00000000E+00  0.00000000E+00  0.00000000E+00
  0.00000000E+00  0.00000000E+00  0.00000000E+00
  0.00000000E+00  0.00000000E+00  0.00000000E+00
  0.00000000E+00  0.00000000E+00  0.00000000E+00
  0.00000000E+00  0.00000000E+00  0.00000000E+00
  0.00000000E+00  0.00000000E+00  0.00000000E+00
  0.00000000E+00  0.00000000E+00  0.00000000E+00
  0.00000000E+00  0.00000000E+00  0.00000000E+00
  0.00000000E+00  0.00000000E+00  0.00000000E+00
  0.00000000E+00  0.00000000E+00  0.00000000E+00
  0.00000000E+00  0.00000000E+00  0.00000000E+00
  0.00000000E+00  0.00000000E+00  0.00000000E+00
  0.00000000E+00  0.00000000E+00  0.00000000E+00
  0.00000000E+00  0.00000000E+00  0.00000000E+00
  0.00000000E+00  0.00000000E+00  0.00000000E+00
  0.00000000E+00  0.00000000E+00  0.00000000E+00
  0.00000000E+00  0.00000000E+00  0.00000000E+00
  0.00000000E+00  0.00000000E+00  0.00000000E+00
  0.00000000E+00  0.00000000E+00  0.00000000E+00
  0.00000000E+00  0.00000000E+00  0.00000000E+00
  0.00000000E+00  0.00000000E+00  0.00000000E+00
  0.00000000E+00  0.00000000E+00  0.00000000E+00
  0.00000000E+00  0.00000000E+00  0.00000000E+00
  0.00000000E+00  0.00000000E+00  0.00000000E+00
  0.00000000E+00  0.00000000E+00  0.00000000E+00
  0.00000000E+00  0.00000000E+00  0.00000000E+00
  0.00000000E+00  0.00000000E+00  0.00000000E+00
  0.00000000E+00  0.00000000E+00  0.00000000E+00
  0.00000000E+00  0.00000000E+00  0.00000000E+00
  0.00000000E+00  0.00000000E+00  0.00000000E+00
  0.00000000E+00  0.00000000E+00  0.00000000E+00
  0.00000000E+00  0.00000000E+00  0.00000000E+00
  0.00000000E+00  0.00000000E+00  0.00000000E+00
  0.00000000E+00  0.00000000E+00  0.00000000E+00
  0.00000000E+00  0.00000000E+00  0.00000000E+00
  0.00000000E+00  0.00000000E+00  0.00000000E+00
  0.00000000E+00  0.00000000E+00  0.00000000E+00
  0.00000000E+00  0.00000000E+00  0.00000000E+00
  0.00000000E+00  0.00000000E+00  0.00000000E+00
  0.00000000E+00  0.00000000E+00  0.00000000E+00
  0.00000000E+00  0.00000000E+00  0.00000000E+00
  0.00000000E+00  0.00000000E+00  0.00000000E+00
  0.00000000E+00  0.00000000E+00  0.00000000E+00
  0.00000000E+00  0.00000000E+00  0.00000000E+00
  0.00000000E+00  0.00000000E+00  0.00000000E+00
  0.00000000E+00  0.00000000E+00  0.00000000E+00
  0.00000000E+00  0.00000000E+00  0.00000000E+00
  0.00000000E+00  0.00000000E+00  0.00000000E+00
  0.00000000E+00  0.00000000E+00  0.00000000E+00
  0.00000000E+00  0.00000000E+00  0.00000000E+00
  0.00000000E+00  0.00000000E+00  0.00000000E+00
  0.00000000E+00  0.00000000E+00  0.00000000E+00
  0.00000000E+00  0.00000000E+00  0.00000000E+00
  0.00000000E+00  0.00000000E+00  0.00000000E+00
  0.00000000E+00  0.00000000E+00  0.00000000E+00
  0.00000000E+00  0.00000000E+00  0.00000000E+00
  0.00000000E+00  0.00000000E+00  0.00000000E+00
  0.00000000E+00  0.00000000E+00  0.00000000E+00
  0.00000000E+00  0.00000000E+00  0.00000000E+00
  0.00000000E+00  0.00000000E+00  0.00000000E+00
  0.00000000E+00  0.00000000E+00  0.00000000E+00
  0.00000000E+00  0.00000000E+00  0.00000000E+00
  0.00000000E+00  0.00000000E+00  0.00000000E+00
  0.00000000E+00  0.00000000E+00  0.00000000E+00
  0.00000000E+00  0.00000000E+00  0.00000000E+00
  0.00000000E+00  0.00000000E+00  0.00000000E+00
  0.00000000E+00  0.00000000E+00  0.00000000E+00
  0.00000000E+00  0.00000000E+00  0.00000000E+00
  0.00000000E+00  0.00000000E+00  0.00000000E+00
  0.00000000E+00  0.00000000E+00  0.00000000E+00
  0.00000000E+00  0.00000000E+00  0.00000000E+00
  0.00000000E+00  0.00000000E+00  0.00000000E+00
  0.00000000E+00  0.00000000E+00  0.00000000E+00
  0.00000000E+00  0.00000000E+00  0.00000000E+00
  0.00000000E+00  0.00000000E+00  0.00000000E+00
  0.00000000E+00  0.00000000E+00  0.00000000E+00
  0.00000000E+00  0.00000000E+00  0.00000000E+00
  0.00000000E+00  0.00000000E+00  0.00000000E+00
  0.00000000E+00  0.00000000E+00  0.00000000E+00
  0.00000000E+00  0.00000000E+00  0.00000000E+00
  0.00000000E+00  0.00000000E+00  0.00000000E+00
  0.00000000E+00  0.00000000E+00  0.00000000E+00
  0.00000000E+00  0.00000000E+00  0.00000000E+00
  0.00000000E+00  0.00000000E+00  0.00000000E+00
  0.00000000E+00  0.00000000E+00  0.00000000E+00
  0.00000000E+00  0.00000000E+00  0.00000000E+00
  0.00000000E+00  0.00000000E+00  0.00000000E+00
  0.00000000E+00  0.00000000E+00  0.00000000E+00
  0.00000000E+00  0.00000000E+00  0.00000000E+00
  0.00000000E+00  0.00000000E+00  0.00000000E+00
  0.00000000E+00  0.00000000E+00  0.00000000E+00
  0.00000000E+00  0.00000000E+00  0.00000000E+00
  0.00000000E+00  0.00000000E+00  0.00000000E+00
  0.00000000E+00  0.00000000E+00  0.00000000E+00
