hexa_FA0500MA0250Cs0250                 
   1.00000000000000     
    18.5868983659474694    0.1629605344846893    0.1036935621741863
    -9.1697953680876001   14.6127307063937426    0.0624739970299072
     0.0425702587915884    0.0600134275446109    7.7384133149512593
   Pb   I    N    C    H    Cs
     8    24    10     6    32     2
Direct
  0.5074563238067458  0.4988419517815859  0.9358651615297864
  0.5054065250295732  0.0005289746937106  0.9324626363756672
  0.9985883626271055  0.5044326805116317  0.9382486052587607
  0.9995280846458564  0.0033205746259312  0.9369385473278590
  0.9998700988429864  0.0048203166022516  0.4350727312537470
  0.9981331383032495  0.5033259623842469  0.4382341177508284
  0.5052849984016676 -0.0002292433437581  0.4242102860984004
  0.5075756776583561  0.4985758805837959  0.4310233001747647
  0.4184908588460108  0.0759566872637722  0.1800556905835423
  0.4192250096860800  0.5746401259967976  0.1849076620832006
  0.9263198380867402  0.0962705777047849  0.1837914383084395
  0.9201531503846238  0.5927056335568776  0.1894795819326553
  0.4331922231943898  0.3256935456657000  0.1835884518779720
  0.4385312399586259  0.8247734468458454  0.1798880524638692
  0.9032859345002652  0.3305893312483819  0.1910736402851601
  0.9169160243190914  0.8289081165161525  0.1928641228690415
  0.1641232586043850  0.0822209004827280  0.1809069414625066
  0.1614199107241054  0.5912309870102360  0.1844888949519648
  0.6722685124899169  0.1008357717024014  0.1648417855219506
  0.6699778740489553  0.6005897283277477  0.1771418414025753
  0.0821060031987951  0.4236381395357876  0.6879253411114171
  0.0837544355032473  0.9195022842444611  0.6838277715287385
  0.5921282587006682  0.4164097834727872  0.6834446362122014
  0.5820497707811093  0.9084451271058336  0.6772315714658569
  0.0861514018125689  0.1795848062879309  0.6832999088941805
  0.0911536347615911  0.6847525034150930  0.6817161259189604
  0.6056481177038952  0.1765726570160082  0.6672037656293756
  0.5896556652913445  0.6797237741502762  0.6702806986317202
  0.3440115796165132  0.4202726598561043  0.6887072643516168
  0.3425813213525289  0.9202953770140821  0.6794454457854271
  0.8334064837981998  0.4220426746609150  0.6951435873818349
  0.8346490814987794  0.9231372626970118  0.6903551942823762
  0.2254737466195898  0.3226229319644942  0.1872946337833579
  0.1040997750871230  0.3309082973189265  0.1859922279117483
  0.2807482610314154  0.1837530166761328  0.6867085821743022
  0.2741444825131865  0.6756778672245833  0.6864923343355539
  0.7788088663890145  0.6837072851207623  0.6861471773205637
  0.4041961384000498  0.1798997186833904  0.6865646215746676
  0.3970809942169788  0.6711660337196027  0.6879442139749846
  0.9028619581941237  0.6816866269336845  0.6877073588719981
  0.7752944418086667  0.1210063279473696  0.7220743987861374
  0.6200517783804333  0.7940992480385998  0.2071862589139416
  0.1863377761067531  0.3676498202684836  0.1870529132195970
  0.3215779158591739  0.1406720375261680  0.6861668112937556
  0.3146079583823022  0.6323036874362085  0.6870610257019001
  0.8203757496376303  0.6414740537016880  0.6867787643467074
  0.8675055015909164  0.1802619953146376  0.6804560805153189
  0.7042885944238494  0.8798194513205798  0.1839988402232653
  0.2256809043868207  0.4420245865152540  0.1877473402221397
  0.2839080465453642  0.0662178640750427  0.6853241521515915
  0.2764431866350447  0.5578274254873787  0.6868679998312431
  0.7836543615541773  0.5669508195648272  0.6866505463107220
  0.1951050450077726  0.2527199870078088  0.1862482454688269
  0.2899811175471749  0.3577877025420945  0.1876443473002459
  0.0797990216236835  0.3719822100599455  0.1859340602614318
  0.0612071330224382  0.2617371991096986  0.1851191568447581
  0.3102325351969142  0.2536620513956777  0.6875984520472862
  0.3036608020347828  0.7454377105326451  0.6862701986809151
  0.8073541772488173  0.7533789623399675  0.6864457340018859
  0.2160086819154060  0.1486162613069116  0.6864630407800132
  0.2094564332562775  0.6397697759903563  0.6858092362369950
  0.7142607963184612  0.6474481966077422  0.6848087203593759
  0.4305004203233243  0.1407662118573698  0.6853111146844539
  0.4234003827318165  0.6319574825025494  0.6873908526326932
  0.9303407816092233  0.6435737696081876  0.6877268315953521
  0.4454449145546721  0.2491842432299684  0.6872148032478873
  0.4383731964011363  0.7404015133179531  0.6877889739340611
  0.9434194908621008  0.7511566206015544  0.6872343810980895
  0.7390082985091997  0.1410797371293035  0.6564586156557071
  0.7618695389815126  0.1221009158262559  0.8526580254862589
  0.7515134936854404  0.0532593706814282  0.6920658179955709
  0.8882486123522997  0.2507217557742080  0.7116652114889992
  0.9018982561159017  0.1568662254664459  0.7572751796616664
  0.8777332714262278  0.1747272578255106  0.5424535729129432
  0.5701128627811479  0.8051970738061039  0.1923142861632655
  0.6131916704974354  0.7652586410391030  0.3291858864727127
  0.6118402607079193  0.7451590710586591  0.1196490994213718
  0.7098116399138154  0.9287934208306959  0.2801867187862913
  0.7539360409825412  0.8643204949253038  0.2010289986311782
  0.7084410216343853  0.9071174578249953  0.0535739677980790
  0.6925290402639778  0.3550556977113873  0.1867602704987736
  0.1407481003693175  0.8254017903936224  0.1887859470136439
 
  0.00000000E+00  0.00000000E+00  0.00000000E+00
  0.00000000E+00  0.00000000E+00  0.00000000E+00
  0.00000000E+00  0.00000000E+00  0.00000000E+00
  0.00000000E+00  0.00000000E+00  0.00000000E+00
  0.00000000E+00  0.00000000E+00  0.00000000E+00
  0.00000000E+00  0.00000000E+00  0.00000000E+00
  0.00000000E+00  0.00000000E+00  0.00000000E+00
  0.00000000E+00  0.00000000E+00  0.00000000E+00
  0.00000000E+00  0.00000000E+00  0.00000000E+00
  0.00000000E+00  0.00000000E+00  0.00000000E+00
  0.00000000E+00  0.00000000E+00  0.00000000E+00
  0.00000000E+00  0.00000000E+00  0.00000000E+00
  0.00000000E+00  0.00000000E+00  0.00000000E+00
  0.00000000E+00  0.00000000E+00  0.00000000E+00
  0.00000000E+00  0.00000000E+00  0.00000000E+00
  0.00000000E+00  0.00000000E+00  0.00000000E+00
  0.00000000E+00  0.00000000E+00  0.00000000E+00
  0.00000000E+00  0.00000000E+00  0.00000000E+00
  0.00000000E+00  0.00000000E+00  0.00000000E+00
  0.00000000E+00  0.00000000E+00  0.00000000E+00
  0.00000000E+00  0.00000000E+00  0.00000000E+00
  0.00000000E+00  0.00000000E+00  0.00000000E+00
  0.00000000E+00  0.00000000E+00  0.00000000E+00
  0.00000000E+00  0.00000000E+00  0.00000000E+00
  0.00000000E+00  0.00000000E+00  0.00000000E+00
  0.00000000E+00  0.00000000E+00  0.00000000E+00
  0.00000000E+00  0.00000000E+00  0.00000000E+00
  0.00000000E+00  0.00000000E+00  0.00000000E+00
  0.00000000E+00  0.00000000E+00  0.00000000E+00
  0.00000000E+00  0.00000000E+00  0.00000000E+00
  0.00000000E+00  0.00000000E+00  0.00000000E+00
  0.00000000E+00  0.00000000E+00  0.00000000E+00
  0.00000000E+00  0.00000000E+00  0.00000000E+00
  0.00000000E+00  0.00000000E+00  0.00000000E+00
  0.00000000E+00  0.00000000E+00  0.00000000E+00
  0.00000000E+00  0.00000000E+00  0.00000000E+00
  0.00000000E+00  0.00000000E+00  0.00000000E+00
  0.00000000E+00  0.00000000E+00  0.00000000E+00
  0.00000000E+00  0.00000000E+00  0.00000000E+00
  0.00000000E+00  0.00000000E+00  0.00000000E+00
  0.00000000E+00  0.00000000E+00  0.00000000E+00
  0.00000000E+00  0.00000000E+00  0.00000000E+00
  0.00000000E+00  0.00000000E+00  0.00000000E+00
  0.00000000E+00  0.00000000E+00  0.00000000E+00
  0.00000000E+00  0.00000000E+00  0.00000000E+00
  0.00000000E+00  0.00000000E+00  0.00000000E+00
  0.00000000E+00  0.00000000E+00  0.00000000E+00
  0.00000000E+00  0.00000000E+00  0.00000000E+00
  0.00000000E+00  0.00000000E+00  0.00000000E+00
  0.00000000E+00  0.00000000E+00  0.00000000E+00
  0.00000000E+00  0.00000000E+00  0.00000000E+00
  0.00000000E+00  0.00000000E+00  0.00000000E+00
  0.00000000E+00  0.00000000E+00  0.00000000E+00
  0.00000000E+00  0.00000000E+00  0.00000000E+00
  0.00000000E+00  0.00000000E+00  0.00000000E+00
  0.00000000E+00  0.00000000E+00  0.00000000E+00
  0.00000000E+00  0.00000000E+00  0.00000000E+00
  0.00000000E+00  0.00000000E+00  0.00000000E+00
  0.00000000E+00  0.00000000E+00  0.00000000E+00
  0.00000000E+00  0.00000000E+00  0.00000000E+00
  0.00000000E+00  0.00000000E+00  0.00000000E+00
  0.00000000E+00  0.00000000E+00  0.00000000E+00
  0.00000000E+00  0.00000000E+00  0.00000000E+00
  0.00000000E+00  0.00000000E+00  0.00000000E+00
  0.00000000E+00  0.00000000E+00  0.00000000E+00
  0.00000000E+00  0.00000000E+00  0.00000000E+00
  0.00000000E+00  0.00000000E+00  0.00000000E+00
  0.00000000E+00  0.00000000E+00  0.00000000E+00
  0.00000000E+00  0.00000000E+00  0.00000000E+00
  0.00000000E+00  0.00000000E+00  0.00000000E+00
  0.00000000E+00  0.00000000E+00  0.00000000E+00
  0.00000000E+00  0.00000000E+00  0.00000000E+00
  0.00000000E+00  0.00000000E+00  0.00000000E+00
  0.00000000E+00  0.00000000E+00  0.00000000E+00
  0.00000000E+00  0.00000000E+00  0.00000000E+00
  0.00000000E+00  0.00000000E+00  0.00000000E+00
  0.00000000E+00  0.00000000E+00  0.00000000E+00
  0.00000000E+00  0.00000000E+00  0.00000000E+00
  0.00000000E+00  0.00000000E+00  0.00000000E+00
  0.00000000E+00  0.00000000E+00  0.00000000E+00
  0.00000000E+00  0.00000000E+00  0.00000000E+00
  0.00000000E+00  0.00000000E+00  0.00000000E+00
