hexa_FA0375MA0625Cs0000                 
   1.00000000000000     
    18.6906496499903199    0.1801121881533893    0.0189686220162092
    -9.2094346596654226   14.5107813839080499    0.2093271923372666
     0.0062650185368902    0.1140505642988083    7.7333333343521424
   Pb   I    N    C    H 
     8    24    11     8    45
Direct
  0.5052969595881376  0.5060350883360080  0.9511114897853389
  0.5204696496136558  0.0173074797451975  0.9326939750399027
  0.0272042868519207  0.5127949036079650  0.9305363380550323
  0.0050074626403264  0.9980126815292829  0.9498994812684455
  0.0048710963877275  0.9984048307471157  0.4441401169126477
  0.0254767580724064  0.5114576036632063  0.4239228918801743
  0.5213213827976994  0.0159467820926211  0.4287198338547242
  0.5068786143831534  0.5095958740934401  0.4488868391832981
  0.4411990669784695  0.1030691966721444  0.1800487199437390
  0.4314411731836871  0.5967559040090497  0.1968860154600240
  0.9298294893478887  0.0851048458884021  0.1948850228984982
  0.9505192303406496  0.6011959171755530  0.1696959100925697
  0.4197778399804605  0.3315660658993239  0.2205150960079632
  0.4386702812574252  0.8402030947174107  0.1863808922399311
  0.9462280495895631  0.3350099476028473  0.1823187817188097
  0.9201958297656675  0.8232515823157253  0.2050133050383660
  0.1680457169231852  0.0891390498303554  0.1923755100985105
  0.1915862543073199  0.6073979134235588  0.1750361723155772
  0.6834532766100454  0.1071667101883472  0.1757245960323730
  0.6682699766596266  0.5886577618639597  0.1934854580076162
  0.0987576648458726  0.4163491056503877  0.6772405295114022
  0.0900632782903757  0.9126334466987037  0.7083754865809764
  0.5903908756635173  0.4229662840126701  0.7072531538517177
  0.6011285295346513  0.9318994513007955  0.6887969838930479
  0.0943974776359756  0.1800629099377001  0.6784079216179651
  0.1186204814457053  0.6898922916122285  0.6620105082249536
  0.6030944449016381  0.1962653503039392  0.6690688578071479
  0.5922843428589351  0.6867520726888309  0.7003326482120719
  0.3424043349425704  0.4233694672048806  0.7035897155278171
  0.3569023776380953  0.9306674286539470  0.6876994051764682
  0.8644399610705091  0.4341239356593975  0.6827751743928558
  0.8430456447084499  0.9218444910325513  0.7042012943622579
  0.2845436263639354  0.1850290747488028  0.6878997843922666
  0.7852278267293981  0.1871973534539303  0.6854927229584469
  0.7870711302098521  0.6860281531544684  0.6878822983687017
  0.4064121604153180  0.1794958443690090  0.6842108895114171
  0.9041406167263668  0.1761460172812705  0.6907824843952191
  0.9063655474302045  0.6749377141143384  0.6846014989969136
  0.2805809249018075  0.6391918419129066  0.7462121142733126
  0.1209996959603355  0.2990536872387396  0.2323656603711998
  0.1218160090084705  0.8389727200054670  0.1465519829151214
  0.6168592966672820  0.8162524876578847  0.1144730562374775
  0.6147197907244665  0.3325248650177748  0.1350447483946395
  0.3242551003183387  0.1409549891414845  0.6857095649461991
  0.8223397623940576  0.1405030552006047  0.6875236453685745
  0.8244278457889260  0.6395592570824029  0.6846760444478412
  0.3674573234441632  0.6853490168357403  0.6710945216333382
  0.2079007208690002  0.3767944839420901  0.1884028477820792
  0.2093497320660736  0.8667617440271747  0.1940172587762926
  0.6936196660763346  0.8659253931388280  0.2214478900788607
  0.6967057855775087  0.3583942059048499  0.2144095193201351
  0.2862829755066507  0.0660185638485759  0.6853089722683342
  0.7815848830152771  0.0657019293420742  0.6866205246640008
  0.7840713910081114  0.5648311127347823  0.6819020189094448
  0.3143493535904208  0.2553847094294110  0.6886615124591472
  0.8170205929359925  0.2575182947318951  0.6863155540647000
  0.8184273282235671  0.7563835937343040  0.6910312950046407
  0.2201204140350078  0.1500444882399037  0.6877543522298313
  0.7207952529432560  0.1539186143064147  0.6831384086115625
  0.7226052598475587  0.6528499194422699  0.6885513041015793
  0.4317981988762294  0.1393755655282389  0.6821810870699299
  0.9276061316577018  0.1342333392047391  0.6914553232447725
  0.9284935025627866  0.6318253908116862  0.6824533991795041
  0.4480841142312726  0.2490888983211615  0.6839571985757036
  0.9474344362015509  0.2452282016230147  0.6916710356403150
  0.9502054526706256  0.7440370960337007  0.6881728695734002
  0.2470219093790371  0.6684860954210137  0.7013478378336293
  0.2794809803869563  0.6418744100388931  0.8804779083697908
  0.2440709507725109  0.5700463514422350  0.7165955638723468
  0.3992588982336046  0.7590122190543656  0.6922398657184807
  0.4016396377113162  0.6570129368271340  0.7338568686295395
  0.3633621919343178  0.6729183852117331  0.5321855402769007
  0.0754762094147556  0.3165004784676542  0.2140068295868119
  0.1155893593676259  0.2765566326957328  0.3604664044661211
  0.1028721115234658  0.2423157176711689  0.1584248257816841
  0.2216119325432585  0.4349825593228203  0.2673251432204664
  0.2527697666030356  0.3554549671108532  0.2147352663134273
  0.2109027889168107  0.3955233338102205  0.0510006386985930
  0.1190524189979422  0.8601165336886754  0.0206334579206807
  0.0973317384535278  0.8678422865227169  0.2245860793270798
  0.0795238540071067  0.7678918947358215  0.1555455939467282
  0.2481758447290186  0.9416968520921660  0.1964764416842680
  0.2077691440115148  0.8368022609203020  0.3217010184867057
  0.2345055499645333  0.8414964678559562  0.0972739975561321
  0.5808796851669726  0.8464844652798004  0.1175965968355353
  0.5757968795587605  0.7486257300589083  0.1584215053807207
  0.6309109811207239  0.8133117902696502  0.9860328126428494
  0.6740457985203568  0.8681492306320259  0.3539728787547210
  0.7271714616346773  0.8294908592125295  0.2197736688152535
  0.7338115356580071  0.9357174997803890  0.1677935016993309
  0.6209713728153242  0.3501897183070917  0.0040703834163630
  0.5870809617065615  0.3648924860801034  0.1912489405695762
  0.5700601068193878  0.2618052164391695  0.1480747160907162
  0.7388251359859380  0.4330437064619350  0.2054113782242716
  0.6850062494992812  0.3344182840886215  0.3500881476815886
  0.7239201068595312  0.3248125872768273  0.1454654144659978
 
  0.00000000E+00  0.00000000E+00  0.00000000E+00
  0.00000000E+00  0.00000000E+00  0.00000000E+00
  0.00000000E+00  0.00000000E+00  0.00000000E+00
  0.00000000E+00  0.00000000E+00  0.00000000E+00
  0.00000000E+00  0.00000000E+00  0.00000000E+00
  0.00000000E+00  0.00000000E+00  0.00000000E+00
  0.00000000E+00  0.00000000E+00  0.00000000E+00
  0.00000000E+00  0.00000000E+00  0.00000000E+00
  0.00000000E+00  0.00000000E+00  0.00000000E+00
  0.00000000E+00  0.00000000E+00  0.00000000E+00
  0.00000000E+00  0.00000000E+00  0.00000000E+00
  0.00000000E+00  0.00000000E+00  0.00000000E+00
  0.00000000E+00  0.00000000E+00  0.00000000E+00
  0.00000000E+00  0.00000000E+00  0.00000000E+00
  0.00000000E+00  0.00000000E+00  0.00000000E+00
  0.00000000E+00  0.00000000E+00  0.00000000E+00
  0.00000000E+00  0.00000000E+00  0.00000000E+00
  0.00000000E+00  0.00000000E+00  0.00000000E+00
  0.00000000E+00  0.00000000E+00  0.00000000E+00
  0.00000000E+00  0.00000000E+00  0.00000000E+00
  0.00000000E+00  0.00000000E+00  0.00000000E+00
  0.00000000E+00  0.00000000E+00  0.00000000E+00
  0.00000000E+00  0.00000000E+00  0.00000000E+00
  0.00000000E+00  0.00000000E+00  0.00000000E+00
  0.00000000E+00  0.00000000E+00  0.00000000E+00
  0.00000000E+00  0.00000000E+00  0.00000000E+00
  0.00000000E+00  0.00000000E+00  0.00000000E+00
  0.00000000E+00  0.00000000E+00  0.00000000E+00
  0.00000000E+00  0.00000000E+00  0.00000000E+00
  0.00000000E+00  0.00000000E+00  0.00000000E+00
  0.00000000E+00  0.00000000E+00  0.00000000E+00
  0.00000000E+00  0.00000000E+00  0.00000000E+00
  0.00000000E+00  0.00000000E+00  0.00000000E+00
  0.00000000E+00  0.00000000E+00  0.00000000E+00
  0.00000000E+00  0.00000000E+00  0.00000000E+00
  0.00000000E+00  0.00000000E+00  0.00000000E+00
  0.00000000E+00  0.00000000E+00  0.00000000E+00
  0.00000000E+00  0.00000000E+00  0.00000000E+00
  0.00000000E+00  0.00000000E+00  0.00000000E+00
  0.00000000E+00  0.00000000E+00  0.00000000E+00
  0.00000000E+00  0.00000000E+00  0.00000000E+00
  0.00000000E+00  0.00000000E+00  0.00000000E+00
  0.00000000E+00  0.00000000E+00  0.00000000E+00
  0.00000000E+00  0.00000000E+00  0.00000000E+00
  0.00000000E+00  0.00000000E+00  0.00000000E+00
  0.00000000E+00  0.00000000E+00  0.00000000E+00
  0.00000000E+00  0.00000000E+00  0.00000000E+00
  0.00000000E+00  0.00000000E+00  0.00000000E+00
  0.00000000E+00  0.00000000E+00  0.00000000E+00
  0.00000000E+00  0.00000000E+00  0.00000000E+00
  0.00000000E+00  0.00000000E+00  0.00000000E+00
  0.00000000E+00  0.00000000E+00  0.00000000E+00
  0.00000000E+00  0.00000000E+00  0.00000000E+00
  0.00000000E+00  0.00000000E+00  0.00000000E+00
  0.00000000E+00  0.00000000E+00  0.00000000E+00
  0.00000000E+00  0.00000000E+00  0.00000000E+00
  0.00000000E+00  0.00000000E+00  0.00000000E+00
  0.00000000E+00  0.00000000E+00  0.00000000E+00
  0.00000000E+00  0.00000000E+00  0.00000000E+00
  0.00000000E+00  0.00000000E+00  0.00000000E+00
  0.00000000E+00  0.00000000E+00  0.00000000E+00
  0.00000000E+00  0.00000000E+00  0.00000000E+00
  0.00000000E+00  0.00000000E+00  0.00000000E+00
  0.00000000E+00  0.00000000E+00  0.00000000E+00
  0.00000000E+00  0.00000000E+00  0.00000000E+00
  0.00000000E+00  0.00000000E+00  0.00000000E+00
  0.00000000E+00  0.00000000E+00  0.00000000E+00
  0.00000000E+00  0.00000000E+00  0.00000000E+00
  0.00000000E+00  0.00000000E+00  0.00000000E+00
  0.00000000E+00  0.00000000E+00  0.00000000E+00
  0.00000000E+00  0.00000000E+00  0.00000000E+00
  0.00000000E+00  0.00000000E+00  0.00000000E+00
  0.00000000E+00  0.00000000E+00  0.00000000E+00
  0.00000000E+00  0.00000000E+00  0.00000000E+00
  0.00000000E+00  0.00000000E+00  0.00000000E+00
  0.00000000E+00  0.00000000E+00  0.00000000E+00
  0.00000000E+00  0.00000000E+00  0.00000000E+00
  0.00000000E+00  0.00000000E+00  0.00000000E+00
  0.00000000E+00  0.00000000E+00  0.00000000E+00
  0.00000000E+00  0.00000000E+00  0.00000000E+00
  0.00000000E+00  0.00000000E+00  0.00000000E+00
  0.00000000E+00  0.00000000E+00  0.00000000E+00
  0.00000000E+00  0.00000000E+00  0.00000000E+00
  0.00000000E+00  0.00000000E+00  0.00000000E+00
  0.00000000E+00  0.00000000E+00  0.00000000E+00
  0.00000000E+00  0.00000000E+00  0.00000000E+00
  0.00000000E+00  0.00000000E+00  0.00000000E+00
  0.00000000E+00  0.00000000E+00  0.00000000E+00
  0.00000000E+00  0.00000000E+00  0.00000000E+00
  0.00000000E+00  0.00000000E+00  0.00000000E+00
  0.00000000E+00  0.00000000E+00  0.00000000E+00
  0.00000000E+00  0.00000000E+00  0.00000000E+00
  0.00000000E+00  0.00000000E+00  0.00000000E+00
  0.00000000E+00  0.00000000E+00  0.00000000E+00
  0.00000000E+00  0.00000000E+00  0.00000000E+00
  0.00000000E+00  0.00000000E+00  0.00000000E+00
