hexa_FA0750MA0250Cs0000                 
   1.00000000000000     
    18.9753789112442597    0.0390264297417856    0.1127935475092145
    -9.4580396359529502   14.4666746455203636   -0.0370145379184604
     0.0460513774367910    0.0101157655761115    7.7249396468387923
   Pb   I    N    C    H 
     8    24    14     8    42
Direct
  0.5047131706305517  0.5006039914178266  0.9497977520358949
  0.5066714545189028  0.0033602700940099  0.9395038161702052
  0.0002131494784626  0.5007825763011142  0.9421509426576808
  0.9966321774580121  0.9987511980820029  0.9459531577547884
  0.9945088983104245  0.9974944987349286  0.4432106810921410
  0.9996197166480004  0.5006018152353298  0.4387883101786351
  0.5097981403597678  0.0033333909551863  0.4331211912746983
  0.5047845867129706  0.5026151753427207  0.4448655592836790
  0.4434623154021776  0.1027336931990357  0.1944467478660349
  0.4368736661545419  0.5948677503990621  0.1989966163217336
  0.9236229542942017  0.0890534868574146  0.1949929129812525
  0.9307224138754663  0.5946383038853224  0.1919957424286775
  0.4156688683422514  0.3226855071527484  0.2043956463851921
  0.4178753994209305  0.8249782073211331  0.1891460398145136
  0.9060131750615816  0.3237162692389134  0.1915823705851947
  0.9029475888012565  0.8218760308545523  0.1939988899631874
  0.1577293199669636  0.0790992590089221  0.1979989777044034
  0.1632499666396952  0.5809572336601405  0.1881069875894990
  0.6700576886501726  0.0734728920248249  0.1753679128137036
  0.6664339903173655  0.5779460151258805  0.1962204107960461
  0.0812776944263308  0.4186212494781986  0.6870932372692469
  0.0785707525479267  0.9180811004175308  0.6897048039336202
  0.5864532485330211  0.4157436057587368  0.6983294107813216
  0.5844572923421979  0.9162749107021632  0.6889508455600437
  0.0888153393605380  0.1777480001377617  0.6913612992720999
  0.0912173740451012  0.6804102516359519  0.6895834526350347
  0.5935158395283907  0.1817855527970893  0.6888618247135075
  0.5912830586392859  0.6799146484314607  0.7048319652236359
  0.3421438133300843  0.4206503026012537  0.6997979708707357
  0.3458118328063421  0.9236848620615871  0.6844540003385626
  0.8376961844819496  0.4214375397870131  0.6956865419655587
  0.8301853211039718  0.9181151005448793  0.7113252239061315
  0.2233228965321288  0.3226876163619642  0.1876224424072062
  0.2240046153180790  0.8218347585982609  0.1869885162446422
  0.1014530006381036  0.3246908200363419  0.1866260623231704
  0.1052003969509512  0.8297667488176952  0.1864535593999697
  0.2775724413894542  0.1786046301734150  0.6868008160814323
  0.2776410709229022  0.6793982824800401  0.6861146794417888
  0.7800150817618579  0.1819453363205910  0.6850107087799249
  0.7793725079652478  0.6794466873499351  0.6866831308557680
  0.4000295957753630  0.1775952074695762  0.6866820524856987
  0.3995857603899254  0.6775640971179359  0.6861906239286895
  0.9024001491772899  0.1811251633351016  0.6867805745402134
  0.9022115226144614  0.6793828195212001  0.6871230585689141
  0.6618340401513689  0.8612112907750459  0.0913120419248885
  0.6258527811541087  0.3457296999956466  0.1499965564423553
  0.1835008840746003  0.3655027938307343  0.1867804914742013
  0.1868770083272476  0.8675583665559453  0.1870644662939813
  0.3178779617174843  0.1364292759561379  0.6862708188455040
  0.3173924913634854  0.6367265209358323  0.6864741219446348
  0.8203528531627527  0.1398019987274267  0.6850917315284579
  0.8201719383057954  0.6377328287441607  0.6861679366001453
  0.6899972994596572  0.8548245416669237  0.2676279812209497
  0.7047946477264951  0.3524717651730389  0.2003134112229197
  0.2215745034702258  0.4410357622739115  0.1861557550122528
  0.2270053747574393  0.9430070685331284  0.1876509243849800
  0.2799805815141896  0.0608773568558553  0.6855128318559010
  0.2791349560150049  0.5611822347812631  0.6870854490419105
  0.7825515255043827  0.0642645841427991  0.6836758971895475
  0.7826395037030703  0.5621937713055736  0.6848916953140892
  0.1933155200354422  0.2519858844084800  0.1887200476062177
  0.1920289188564362  0.7509139015397968  0.1867861888059485
  0.2875499374359670  0.3594880513041102  0.1882183074827643
  0.2881600487613716  0.8560204579393622  0.1879611020167874
  0.0754890561588005  0.3633320624483090  0.1865258209787675
  0.0817989041503474  0.8708179135577302  0.1872265359789143
  0.0596691524147844  0.2540735647048983  0.1877300947554423
  0.0616752318128981  0.7593266623552695  0.1864842025036542
  0.3070596590706655  0.2493173455206847  0.6874724559599384
  0.3075238205499218  0.7501396018994781  0.6856240513996512
  0.8093186082951425  0.2525634045214769  0.6870361650127226
  0.8081989810644495  0.7498852446099711  0.6892632052574277
  0.2132249984458257  0.1412148266116779  0.6861392321284253
  0.2132460516613084  0.6424636311002190  0.6864096030389221
  0.7157719987652447  0.1446252785441860  0.6850913254632049
  0.7151488168128257  0.6415262789127950  0.6871061166323249
  0.4260383870428813  0.1390093210869269  0.6856081807935225
  0.4254022459505139  0.6388841058565223  0.6869024702578664
  0.9289969268576681  0.1431808516968157  0.6870245264131450
  0.9289086117160825  0.6414896027028324  0.6868518415378807
  0.4415291154448137  0.2480561623415003  0.6869542233978626
  0.4411009717156144  0.7479838665472143  0.6852413527455011
  0.9437838550327770  0.2517675125617421  0.6876595230402053
  0.9434470070850502  0.7500361479255635  0.6880243874946192
  0.6571041994336986  0.9188581393807019  0.0848544942086176
  0.6036822877626910  0.8033184873529485  0.0626545471946056
  0.7036132049198423  0.8683330431168970  0.9952309219346822
  0.6464904090095553  0.8537909183527792  0.3634029455449546
  0.6901503807609796  0.7916789296127886  0.2761998147101629
  0.7534925204755391  0.9156409518238467  0.2867686382391100
  0.6227703736456022  0.3523634614300324  0.0174204242122293
  0.6223004059019646  0.3988119622744994  0.2046872273745972
  0.5722690381268392  0.2825174744815578  0.1855133469880126
  0.7586473742459903  0.4214015658660842  0.1661778046186115
  0.7032211298556841  0.3417402480722317  0.3403919256538984
  0.7088524116372374  0.2995649186960109  0.1311464590599864
 
  0.00000000E+00  0.00000000E+00  0.00000000E+00
  0.00000000E+00  0.00000000E+00  0.00000000E+00
  0.00000000E+00  0.00000000E+00  0.00000000E+00
  0.00000000E+00  0.00000000E+00  0.00000000E+00
  0.00000000E+00  0.00000000E+00  0.00000000E+00
  0.00000000E+00  0.00000000E+00  0.00000000E+00
  0.00000000E+00  0.00000000E+00  0.00000000E+00
  0.00000000E+00  0.00000000E+00  0.00000000E+00
  0.00000000E+00  0.00000000E+00  0.00000000E+00
  0.00000000E+00  0.00000000E+00  0.00000000E+00
  0.00000000E+00  0.00000000E+00  0.00000000E+00
  0.00000000E+00  0.00000000E+00  0.00000000E+00
  0.00000000E+00  0.00000000E+00  0.00000000E+00
  0.00000000E+00  0.00000000E+00  0.00000000E+00
  0.00000000E+00  0.00000000E+00  0.00000000E+00
  0.00000000E+00  0.00000000E+00  0.00000000E+00
  0.00000000E+00  0.00000000E+00  0.00000000E+00
  0.00000000E+00  0.00000000E+00  0.00000000E+00
  0.00000000E+00  0.00000000E+00  0.00000000E+00
  0.00000000E+00  0.00000000E+00  0.00000000E+00
  0.00000000E+00  0.00000000E+00  0.00000000E+00
  0.00000000E+00  0.00000000E+00  0.00000000E+00
  0.00000000E+00  0.00000000E+00  0.00000000E+00
  0.00000000E+00  0.00000000E+00  0.00000000E+00
  0.00000000E+00  0.00000000E+00  0.00000000E+00
  0.00000000E+00  0.00000000E+00  0.00000000E+00
  0.00000000E+00  0.00000000E+00  0.00000000E+00
  0.00000000E+00  0.00000000E+00  0.00000000E+00
  0.00000000E+00  0.00000000E+00  0.00000000E+00
  0.00000000E+00  0.00000000E+00  0.00000000E+00
  0.00000000E+00  0.00000000E+00  0.00000000E+00
  0.00000000E+00  0.00000000E+00  0.00000000E+00
  0.00000000E+00  0.00000000E+00  0.00000000E+00
  0.00000000E+00  0.00000000E+00  0.00000000E+00
  0.00000000E+00  0.00000000E+00  0.00000000E+00
  0.00000000E+00  0.00000000E+00  0.00000000E+00
  0.00000000E+00  0.00000000E+00  0.00000000E+00
  0.00000000E+00  0.00000000E+00  0.00000000E+00
  0.00000000E+00  0.00000000E+00  0.00000000E+00
  0.00000000E+00  0.00000000E+00  0.00000000E+00
  0.00000000E+00  0.00000000E+00  0.00000000E+00
  0.00000000E+00  0.00000000E+00  0.00000000E+00
  0.00000000E+00  0.00000000E+00  0.00000000E+00
  0.00000000E+00  0.00000000E+00  0.00000000E+00
  0.00000000E+00  0.00000000E+00  0.00000000E+00
  0.00000000E+00  0.00000000E+00  0.00000000E+00
  0.00000000E+00  0.00000000E+00  0.00000000E+00
  0.00000000E+00  0.00000000E+00  0.00000000E+00
  0.00000000E+00  0.00000000E+00  0.00000000E+00
  0.00000000E+00  0.00000000E+00  0.00000000E+00
  0.00000000E+00  0.00000000E+00  0.00000000E+00
  0.00000000E+00  0.00000000E+00  0.00000000E+00
  0.00000000E+00  0.00000000E+00  0.00000000E+00
  0.00000000E+00  0.00000000E+00  0.00000000E+00
  0.00000000E+00  0.00000000E+00  0.00000000E+00
  0.00000000E+00  0.00000000E+00  0.00000000E+00
  0.00000000E+00  0.00000000E+00  0.00000000E+00
  0.00000000E+00  0.00000000E+00  0.00000000E+00
  0.00000000E+00  0.00000000E+00  0.00000000E+00
  0.00000000E+00  0.00000000E+00  0.00000000E+00
  0.00000000E+00  0.00000000E+00  0.00000000E+00
  0.00000000E+00  0.00000000E+00  0.00000000E+00
  0.00000000E+00  0.00000000E+00  0.00000000E+00
  0.00000000E+00  0.00000000E+00  0.00000000E+00
  0.00000000E+00  0.00000000E+00  0.00000000E+00
  0.00000000E+00  0.00000000E+00  0.00000000E+00
  0.00000000E+00  0.00000000E+00  0.00000000E+00
  0.00000000E+00  0.00000000E+00  0.00000000E+00
  0.00000000E+00  0.00000000E+00  0.00000000E+00
  0.00000000E+00  0.00000000E+00  0.00000000E+00
  0.00000000E+00  0.00000000E+00  0.00000000E+00
  0.00000000E+00  0.00000000E+00  0.00000000E+00
  0.00000000E+00  0.00000000E+00  0.00000000E+00
  0.00000000E+00  0.00000000E+00  0.00000000E+00
  0.00000000E+00  0.00000000E+00  0.00000000E+00
  0.00000000E+00  0.00000000E+00  0.00000000E+00
  0.00000000E+00  0.00000000E+00  0.00000000E+00
  0.00000000E+00  0.00000000E+00  0.00000000E+00
  0.00000000E+00  0.00000000E+00  0.00000000E+00
  0.00000000E+00  0.00000000E+00  0.00000000E+00
  0.00000000E+00  0.00000000E+00  0.00000000E+00
  0.00000000E+00  0.00000000E+00  0.00000000E+00
  0.00000000E+00  0.00000000E+00  0.00000000E+00
  0.00000000E+00  0.00000000E+00  0.00000000E+00
  0.00000000E+00  0.00000000E+00  0.00000000E+00
  0.00000000E+00  0.00000000E+00  0.00000000E+00
  0.00000000E+00  0.00000000E+00  0.00000000E+00
  0.00000000E+00  0.00000000E+00  0.00000000E+00
  0.00000000E+00  0.00000000E+00  0.00000000E+00
  0.00000000E+00  0.00000000E+00  0.00000000E+00
  0.00000000E+00  0.00000000E+00  0.00000000E+00
  0.00000000E+00  0.00000000E+00  0.00000000E+00
  0.00000000E+00  0.00000000E+00  0.00000000E+00
  0.00000000E+00  0.00000000E+00  0.00000000E+00
  0.00000000E+00  0.00000000E+00  0.00000000E+00
  0.00000000E+00  0.00000000E+00  0.00000000E+00
