hexa_FA0375MA0000Cs0625                 
   1.00000000000000     
    18.1211856705200347    0.0112630617687964   -0.0001581127439910
    -9.0518885157260769   14.7897200748599023    0.0011799444023064
    -0.0000679222353676    0.0005865270095560    7.8329711237978321
   Pb   I    N    C    H    Cs
     8    24     6     3    15     5
Direct
  0.5013304574200079  0.5021389026363919  0.9405613992593606
  0.5025544344280568  0.9983736995401028  0.9404440918560122
  0.0004105692182256  0.5008382576827867  0.9395427834079111
 -0.0045766453984650  0.9976918111359486  0.9405207418883523
 -0.0045590306333321 -0.0021841255332638  0.4376927296932722
  0.0004921714741684  0.5008656821165048  0.4385924730723548
  0.5026008955205877 -0.0015955444752249  0.4379207389158820
  0.5012766294243524  0.5022006211288101  0.4374741986345015
  0.4229277235262143  0.0853952685120191  0.1891932716419412
  0.4192064983474659  0.5869242124626201  0.1891814975144316
  0.9105001133083367  0.0808742789639780  0.1892589068016228
  0.9237708614210808  0.5910222898540652  0.1888807568636077
  0.4289909662438702  0.3290101152428876  0.1894777342765311
  0.4128716443937612  0.8238837843882995  0.1897532789888890
  0.8985823985637431  0.3259006225093105  0.1896380805743124
  0.9118971253332924  0.8260120083952499  0.1895120815065947
  0.1630380892430662  0.0809821798098704  0.1890538312612932
  0.1680285234536397  0.5855112911003494  0.1893156555440907
  0.6695561145308018  0.0823423321365180  0.1894539334355758
  0.6673202634111188  0.5928587690600452  0.1888548363359096
  0.0768032295077147  0.4108026460583761  0.6889346271386091
  0.0838820146871243  0.9176285462246244  0.6892927498943647
  0.5877902904929776  0.4198831972268083  0.6892519936453967
  0.5846076939477809  0.9129656938987490  0.6893825524045694
  0.0711892251597765  0.1711944049489068  0.6894147675633595
  0.1021188108571969  0.6753090338035874  0.6895688481175702
  0.6016307430847719  0.1738208746821631  0.6896907464822205
  0.5740170177224055  0.6758290197398604  0.6894451131911273
  0.3332998514795445  0.4172328308792853  0.6888832538193405
  0.3349108957346048  0.9147272000784881  0.6894557129326808
  0.8335306219126761  0.4165533384622667  0.6893447820752480
  0.8272824482617509  0.9151247257883178  0.6892175510399264
  0.2244298466428619  0.3199813668615643  0.1866025174811399
  0.0960132018185581  0.3201276888943923  0.1866468842571713
  0.2763006207574095  0.1810784258671914  0.6865941719318520
  0.7760242275973821  0.6802142498111248  0.6866032943133838
  0.4046769726030353  0.1807859390778080  0.6866431471105414
  0.9044016632289099  0.6799737774798644  0.6866185856662972
  0.1807079206779617  0.3610564688065460  0.1865020759577630
  0.3200291998420630  0.1400064583829717  0.6864880480307167
  0.8197702824527697  0.6391814428045742  0.6864758692426276
  0.2176197313957711  0.4350584924012385  0.1863172722215942
  0.2830582390013223  0.0660177724371692  0.6862894772048018
  0.7827225527486984  0.5651679658996538  0.6862732442897375
  0.1956919807819240  0.2507251415606373  0.1868568919910494
  0.2905658549988728  0.3565983927138531  0.1866302866376270
  0.0668446723976994  0.3571406911280562  0.1866880645203218
  0.0555115355721274  0.2511083289266351  0.1868816219931726
  0.3050502670605350  0.2503721379215273  0.6868579522135755
  0.8044921046817249  0.7493480309774028  0.6868741574836887
  0.2101692553494998  0.1444450179515347  0.6866288634929095
  0.7099201602782732  0.6432677543784276  0.6866272980732665
  0.4337643351762953  0.1436586807554287  0.6866799317124840
  0.9334416078057926  0.6428263859078017  0.6866471569483497
  0.4452132684435340  0.2498511121775536  0.6868907761659054
  0.9450958029749310  0.7491365566888639  0.6868871316343763
  0.6773329760410692  0.3521989093343027  0.1854809828756443
  0.1765542017905770  0.8438216041034911  0.1855196417407828
  0.3224853726181245  0.6507668161642183  0.6853676369058396
  0.8265100774746199  0.1607026014643091  0.6856117121123336
  0.6650630193214894  0.8387885915939020  0.1855302602622097
 
  0.00000000E+00  0.00000000E+00  0.00000000E+00
  0.00000000E+00  0.00000000E+00  0.00000000E+00
  0.00000000E+00  0.00000000E+00  0.00000000E+00
  0.00000000E+00  0.00000000E+00  0.00000000E+00
  0.00000000E+00  0.00000000E+00  0.00000000E+00
  0.00000000E+00  0.00000000E+00  0.00000000E+00
  0.00000000E+00  0.00000000E+00  0.00000000E+00
  0.00000000E+00  0.00000000E+00  0.00000000E+00
  0.00000000E+00  0.00000000E+00  0.00000000E+00
  0.00000000E+00  0.00000000E+00  0.00000000E+00
  0.00000000E+00  0.00000000E+00  0.00000000E+00
  0.00000000E+00  0.00000000E+00  0.00000000E+00
  0.00000000E+00  0.00000000E+00  0.00000000E+00
  0.00000000E+00  0.00000000E+00  0.00000000E+00
  0.00000000E+00  0.00000000E+00  0.00000000E+00
  0.00000000E+00  0.00000000E+00  0.00000000E+00
  0.00000000E+00  0.00000000E+00  0.00000000E+00
  0.00000000E+00  0.00000000E+00  0.00000000E+00
  0.00000000E+00  0.00000000E+00  0.00000000E+00
  0.00000000E+00  0.00000000E+00  0.00000000E+00
  0.00000000E+00  0.00000000E+00  0.00000000E+00
  0.00000000E+00  0.00000000E+00  0.00000000E+00
  0.00000000E+00  0.00000000E+00  0.00000000E+00
  0.00000000E+00  0.00000000E+00  0.00000000E+00
  0.00000000E+00  0.00000000E+00  0.00000000E+00
  0.00000000E+00  0.00000000E+00  0.00000000E+00
  0.00000000E+00  0.00000000E+00  0.00000000E+00
  0.00000000E+00  0.00000000E+00  0.00000000E+00
  0.00000000E+00  0.00000000E+00  0.00000000E+00
  0.00000000E+00  0.00000000E+00  0.00000000E+00
  0.00000000E+00  0.00000000E+00  0.00000000E+00
  0.00000000E+00  0.00000000E+00  0.00000000E+00
  0.00000000E+00  0.00000000E+00  0.00000000E+00
  0.00000000E+00  0.00000000E+00  0.00000000E+00
  0.00000000E+00  0.00000000E+00  0.00000000E+00
  0.00000000E+00  0.00000000E+00  0.00000000E+00
  0.00000000E+00  0.00000000E+00  0.00000000E+00
  0.00000000E+00  0.00000000E+00  0.00000000E+00
  0.00000000E+00  0.00000000E+00  0.00000000E+00
  0.00000000E+00  0.00000000E+00  0.00000000E+00
  0.00000000E+00  0.00000000E+00  0.00000000E+00
  0.00000000E+00  0.00000000E+00  0.00000000E+00
  0.00000000E+00  0.00000000E+00  0.00000000E+00
  0.00000000E+00  0.00000000E+00  0.00000000E+00
  0.00000000E+00  0.00000000E+00  0.00000000E+00
  0.00000000E+00  0.00000000E+00  0.00000000E+00
  0.00000000E+00  0.00000000E+00  0.00000000E+00
  0.00000000E+00  0.00000000E+00  0.00000000E+00
  0.00000000E+00  0.00000000E+00  0.00000000E+00
  0.00000000E+00  0.00000000E+00  0.00000000E+00
  0.00000000E+00  0.00000000E+00  0.00000000E+00
  0.00000000E+00  0.00000000E+00  0.00000000E+00
  0.00000000E+00  0.00000000E+00  0.00000000E+00
  0.00000000E+00  0.00000000E+00  0.00000000E+00
  0.00000000E+00  0.00000000E+00  0.00000000E+00
  0.00000000E+00  0.00000000E+00  0.00000000E+00
  0.00000000E+00  0.00000000E+00  0.00000000E+00
  0.00000000E+00  0.00000000E+00  0.00000000E+00
  0.00000000E+00  0.00000000E+00  0.00000000E+00
  0.00000000E+00  0.00000000E+00  0.00000000E+00
  0.00000000E+00  0.00000000E+00  0.00000000E+00
