hexa_FA0250MA0125Cs0625                 
   1.00000000000000     
    18.4147823727960720    0.0104594379732197    0.2177655458356682
    -9.1979254583849119   14.6752555345319724   -0.0801764532892842
     0.0915855534719416    0.0153471590969623    7.8112846330378085
   Pb   I    N    C    H    Cs
     8    24     5     3    16     5
Direct
  0.5031586981509217  0.5053508404340512  0.9341248960569818
  0.4985110888955263  0.9972727242560345  0.9380632529996843
  0.0018006503775638  0.5030377266377626  0.9394162772716302
 -0.0023955068052095  0.9950981794890372  0.9390401763420756
 -0.0002637144115252 -0.0016599241435531  0.4439484457937521
  0.0029663299456014  0.5022901605568676  0.4466703716050758
  0.4985444464010488 -0.0026990732145745  0.4408956777606875
  0.4993159487709444  0.5043460639344624  0.4405323804269579
  0.4117041830626168  0.0783867451446511  0.1956462189187628
  0.4216175975863069  0.5900095737233056  0.1889720146801658
  0.9124867490425240  0.0784976679759103  0.1955863885411780
  0.9200402300517784  0.5895240812687292  0.2179336978466245
  0.4136572530515356  0.3264448502338004  0.1879508565697746
  0.4112414880675850  0.8219708244920130  0.1917318309233593
  0.9128516854925044  0.3251572352200999  0.1934285872334002
  0.9099454359101570  0.8225567052265728  0.2027424407920411
  0.1663429698512370  0.0785271545830455  0.1818195258476118
  0.1683254008817014  0.5897306653599820  0.1823268011552716
  0.6663775997591957  0.0786806937552894  0.1826144629402721
  0.6661894958689281  0.5928385933435325  0.1878798057283777
  0.0796847945966629  0.4151271314398179  0.6983574244422898
  0.0851650086101599  0.9172463450460180  0.6844295233884919
  0.5898271862137321  0.4266063419876710  0.6760112810171119
  0.5796926033154989  0.9129917933375058  0.6841234447313237
  0.0846462696312772  0.1715662975781011  0.6980241577041987
  0.0943530916665524  0.6767496659055925  0.6912964093790562
  0.5835035818743498  0.1715986834053145  0.6890189442455295
  0.5851841804046349  0.6785837598919136  0.6853839650885768
  0.3362951807067250  0.4120932334434391  0.6992181355726221
  0.3331561528139534  0.9123254431079446  0.6965975433921154
  0.8376256823257946  0.4052690304887557  0.6961845619618845
  0.8328252201918377  0.9109653882084794  0.6949244810221082
  0.2231645763854656  0.3202224809225153  0.1874551875858516
  0.7233605881762950  0.3202456188957112  0.1869358613001244
  0.0970670074254470  0.3202610819460258  0.1863367438484853
  0.5972372910656829  0.3202495831533502  0.1850097032277097
  0.8013751825871429  0.6347726939966621  0.5900526489557215
  0.1807612002780787  0.3614850162867416  0.1866102389846931
  0.6808609046142580  0.3615143552015298  0.1855034193922419
  0.8362486778934132  0.6449858288792378  0.7652781695209868
  0.2179014003935043  0.4360452179003174  0.1862546658768058
  0.7181364693933561  0.4360427040753946  0.1846732756642631
  0.1943792299310580  0.2505762416739486  0.1865896452483748
  0.6945544242490030  0.2506400741725078  0.1871632567375320
  0.2887100792263876  0.3570307670791668  0.1866431764847142
  0.7888554525584328  0.3570335373686674  0.1876962348610923
  0.0683875090788799  0.3571465903437789  0.1852513686505224
  0.5683475041906263  0.3569854446542015  0.1850267561562995
  0.0563215268363916  0.2506544369771664  0.1863160853755589
  0.5565110528290702  0.2506298939854509  0.1865130346682517
  0.8021969296317263  0.6921985050335868  0.5521365898733692
  0.7379609346539936  0.5796201639976443  0.5875106602538813
  0.8363004418248984  0.6232148589529980  0.4982365704596629
  0.7960018889472305  0.6551586935203112  0.8566247637667038
  0.8343455742100885  0.5823698528813442  0.7967441590510735
  0.9023163940931787  0.7035690793608501  0.7663442668653708
  0.1641117385535786  0.8293141129283358  0.1870423307342069
  0.3282886515543474  0.1598670237970243  0.6861038593236535
  0.3228726537655704  0.6520125485521010  0.6873462143418942
  0.6659830654858311  0.8322391898211032  0.1843491572756325
  0.8328179464366487  0.1648204755484007  0.6860896988166210
 
  0.00000000E+00  0.00000000E+00  0.00000000E+00
  0.00000000E+00  0.00000000E+00  0.00000000E+00
  0.00000000E+00  0.00000000E+00  0.00000000E+00
  0.00000000E+00  0.00000000E+00  0.00000000E+00
  0.00000000E+00  0.00000000E+00  0.00000000E+00
  0.00000000E+00  0.00000000E+00  0.00000000E+00
  0.00000000E+00  0.00000000E+00  0.00000000E+00
  0.00000000E+00  0.00000000E+00  0.00000000E+00
  0.00000000E+00  0.00000000E+00  0.00000000E+00
  0.00000000E+00  0.00000000E+00  0.00000000E+00
  0.00000000E+00  0.00000000E+00  0.00000000E+00
  0.00000000E+00  0.00000000E+00  0.00000000E+00
  0.00000000E+00  0.00000000E+00  0.00000000E+00
  0.00000000E+00  0.00000000E+00  0.00000000E+00
  0.00000000E+00  0.00000000E+00  0.00000000E+00
  0.00000000E+00  0.00000000E+00  0.00000000E+00
  0.00000000E+00  0.00000000E+00  0.00000000E+00
  0.00000000E+00  0.00000000E+00  0.00000000E+00
  0.00000000E+00  0.00000000E+00  0.00000000E+00
  0.00000000E+00  0.00000000E+00  0.00000000E+00
  0.00000000E+00  0.00000000E+00  0.00000000E+00
  0.00000000E+00  0.00000000E+00  0.00000000E+00
  0.00000000E+00  0.00000000E+00  0.00000000E+00
  0.00000000E+00  0.00000000E+00  0.00000000E+00
  0.00000000E+00  0.00000000E+00  0.00000000E+00
  0.00000000E+00  0.00000000E+00  0.00000000E+00
  0.00000000E+00  0.00000000E+00  0.00000000E+00
  0.00000000E+00  0.00000000E+00  0.00000000E+00
  0.00000000E+00  0.00000000E+00  0.00000000E+00
  0.00000000E+00  0.00000000E+00  0.00000000E+00
  0.00000000E+00  0.00000000E+00  0.00000000E+00
  0.00000000E+00  0.00000000E+00  0.00000000E+00
  0.00000000E+00  0.00000000E+00  0.00000000E+00
  0.00000000E+00  0.00000000E+00  0.00000000E+00
  0.00000000E+00  0.00000000E+00  0.00000000E+00
  0.00000000E+00  0.00000000E+00  0.00000000E+00
  0.00000000E+00  0.00000000E+00  0.00000000E+00
  0.00000000E+00  0.00000000E+00  0.00000000E+00
  0.00000000E+00  0.00000000E+00  0.00000000E+00
  0.00000000E+00  0.00000000E+00  0.00000000E+00
  0.00000000E+00  0.00000000E+00  0.00000000E+00
  0.00000000E+00  0.00000000E+00  0.00000000E+00
  0.00000000E+00  0.00000000E+00  0.00000000E+00
  0.00000000E+00  0.00000000E+00  0.00000000E+00
  0.00000000E+00  0.00000000E+00  0.00000000E+00
  0.00000000E+00  0.00000000E+00  0.00000000E+00
  0.00000000E+00  0.00000000E+00  0.00000000E+00
  0.00000000E+00  0.00000000E+00  0.00000000E+00
  0.00000000E+00  0.00000000E+00  0.00000000E+00
  0.00000000E+00  0.00000000E+00  0.00000000E+00
  0.00000000E+00  0.00000000E+00  0.00000000E+00
  0.00000000E+00  0.00000000E+00  0.00000000E+00
  0.00000000E+00  0.00000000E+00  0.00000000E+00
  0.00000000E+00  0.00000000E+00  0.00000000E+00
  0.00000000E+00  0.00000000E+00  0.00000000E+00
  0.00000000E+00  0.00000000E+00  0.00000000E+00
  0.00000000E+00  0.00000000E+00  0.00000000E+00
  0.00000000E+00  0.00000000E+00  0.00000000E+00
  0.00000000E+00  0.00000000E+00  0.00000000E+00
  0.00000000E+00  0.00000000E+00  0.00000000E+00
  0.00000000E+00  0.00000000E+00  0.00000000E+00
