cubic_FA0500MA0125Cs0375                
   1.00000000000000     
    12.7623341916536202   -0.1590499085535790    0.1688388645062875
    -0.1587604921662242   12.6918565034887525   -0.1651839107717105
     0.1665412241053705   -0.1635880333844200   12.7444022983075946
   Cs   I    Pb   C    N    H 
     3    24     8     5     9    26
Direct
  0.2378546482615661  0.2453199907399835  0.2338301154168282
  0.2403072539930052  0.7630366190963845  0.2347204959248873
  0.7604647568948368  0.2314487510301408  0.2451225657442926
  0.9957083508084212  0.0035238320560875  0.2375485721966525
  0.0221257032597920  0.9775288893638547  0.7365954987682233
  0.0132545446614587  0.4868967644040868  0.2448954346982766
  0.0032945414143072  0.4964491526561407  0.7460386689582525
  0.5182227704154045  0.0003992570086310  0.2336980769000961
  0.5211140951820976  0.9808850973933242  0.7334485188703276
  0.5079568059989279  0.4523486932191727  0.2501923290454642
  0.5204296541508215  0.4978241382992202  0.7512702183481259
  0.0170462961470910  0.2429426868644796  0.9926778067287558
  0.9863654619548298  0.2506655609622332  0.4734177959569209
  0.9949878742723038  0.7421242526663755  0.0119453719567751
  0.0262930785095949  0.7511873285579282  0.4783704264359115
  0.4864915900184754  0.2410701913799418  0.9937014496210460
  0.5233754381634228  0.2456813764366029  0.5233990211727261
  0.4826399780113466  0.7420680426034074  0.0046805436932264
  0.4649004977005445  0.7444549132406709  0.4682228375174957
  0.2566125224392817  0.4743747889940043  0.4904880042622032
  0.2560435191937024  0.4978554362410965  0.0160094709772386
  0.2498545730146222  0.0289006210197341  0.4670607432175695
  0.2490769209553424  0.9899909432903916  0.0103075424676589
  0.7580669012417216  0.5137213884792338  0.5015904127841637
  0.7556449291011718  0.4774317271586595  0.0184417191020301
  0.7481750514402985  0.9936239451040720  0.4747815010347431
  0.7499919352791199  0.0230615904542440  0.9722823445478346
  0.4964177307982750  0.9888510367977216  0.9830679575218264
  0.4965621466760088  0.9964242533076316  0.4832153536039969
  0.5056789233537128  0.4936246658381443  0.9982609450141881
  0.5057091744550691  0.4953617872886517  0.4924023347611560
  0.0007050733613462  0.9932914726912472  0.9851513748948331
  0.9983614849131868  0.0020073590583793  0.4885686773868799
  0.0069731110644734  0.4916520305683013  0.9955905532022087
  0.0089425184394829  0.5001145536599243  0.4950104320060448
  0.7555109037878699  0.7682306213377836  0.2525689657606896
  0.2357902120120363  0.7515205729612395  0.7569542820876816
  0.7527521453627581  0.7684011541343784  0.7524862728863960
  0.2441324932904269  0.2516535621859000  0.7682568434201588
  0.7929826497897523  0.2520618514077840  0.7243192116420838
  0.8303733598612703  0.7086263164088160  0.2839540479228260
  0.7006109192785935  0.7490596794974306  0.1681207425659143
  0.2905275414864664  0.6731500067273984  0.7896860523647872
  0.2457087136561885  0.7932515004897928  0.6639014349175243
  0.8057915577967218  0.6971478127524199  0.8002343561153731
  0.7214214908396966  0.7596352080733555  0.6554693857702532
  0.3404350826506012  0.2195204809893576  0.7536021657555015
  0.1801690043359394  0.2734273789917416  0.6931989598406648
  0.6948395095293898  0.2351132771508276  0.7886781488159124
  0.7374848820853003  0.8388175142698708  0.3002543381679562
  0.8727338866282008  0.7302290387765259  0.3488308079857922
  0.8535994615308905  0.6416891192185185  0.2442182386644337
  0.7121991284112066  0.6837982731994009  0.1206858910678922
  0.6403034998623952  0.7965570663742377  0.1508253771843963
  0.1770938247114847  0.7850810332250041  0.8112937948379559
  0.2771218479990186  0.6447369044393191  0.8634535480240266
  0.3481931982721778  0.6369696320341859  0.7456400178146597
  0.2990991322298479  0.7680931398552995  0.6075275337549966
  0.1982994246090731  0.8537455691890825  0.6464988500005527
  0.7326628629034811  0.8401218831381299  0.7973854373151170
  0.8342740170761150  0.7132325759562409  0.8733768447697626
  0.8327003668616481  0.6301641931756904  0.7630081975241397
  0.7365721124105753  0.6945184168347668  0.6079795630360474
  0.6814910536751145  0.8198206131398799  0.6247929559406010
  0.2140075305771311  0.2600833405873799  0.8491151293545425
  0.3852304790411284  0.2090980658109670  0.8180972694502517
  0.3767489372390865  0.2142685508835850  0.6807766181043888
  0.2023414184244846  0.2717926378228580  0.6155829482628901
  0.1090575955300748  0.3050037830578944  0.7121008551498372
  0.6298814877560815  0.2300766980256531  0.7414849727393548
  0.6827544325330699  0.2957077628952288  0.8431481585451318
  0.6975506065172391  0.1657920801009751  0.8310213867236135
  0.7903245811513714  0.3290850048285472  0.6877123684224503
  0.8600646435038346  0.2495201620604099  0.7760643723448166
  0.7976404655135623  0.1893393444887849  0.6638301793164685
 
  0.00000000E+00  0.00000000E+00  0.00000000E+00
  0.00000000E+00  0.00000000E+00  0.00000000E+00
  0.00000000E+00  0.00000000E+00  0.00000000E+00
  0.00000000E+00  0.00000000E+00  0.00000000E+00
  0.00000000E+00  0.00000000E+00  0.00000000E+00
  0.00000000E+00  0.00000000E+00  0.00000000E+00
  0.00000000E+00  0.00000000E+00  0.00000000E+00
  0.00000000E+00  0.00000000E+00  0.00000000E+00
  0.00000000E+00  0.00000000E+00  0.00000000E+00
  0.00000000E+00  0.00000000E+00  0.00000000E+00
  0.00000000E+00  0.00000000E+00  0.00000000E+00
  0.00000000E+00  0.00000000E+00  0.00000000E+00
  0.00000000E+00  0.00000000E+00  0.00000000E+00
  0.00000000E+00  0.00000000E+00  0.00000000E+00
  0.00000000E+00  0.00000000E+00  0.00000000E+00
  0.00000000E+00  0.00000000E+00  0.00000000E+00
  0.00000000E+00  0.00000000E+00  0.00000000E+00
  0.00000000E+00  0.00000000E+00  0.00000000E+00
  0.00000000E+00  0.00000000E+00  0.00000000E+00
  0.00000000E+00  0.00000000E+00  0.00000000E+00
  0.00000000E+00  0.00000000E+00  0.00000000E+00
  0.00000000E+00  0.00000000E+00  0.00000000E+00
  0.00000000E+00  0.00000000E+00  0.00000000E+00
  0.00000000E+00  0.00000000E+00  0.00000000E+00
  0.00000000E+00  0.00000000E+00  0.00000000E+00
  0.00000000E+00  0.00000000E+00  0.00000000E+00
  0.00000000E+00  0.00000000E+00  0.00000000E+00
  0.00000000E+00  0.00000000E+00  0.00000000E+00
  0.00000000E+00  0.00000000E+00  0.00000000E+00
  0.00000000E+00  0.00000000E+00  0.00000000E+00
  0.00000000E+00  0.00000000E+00  0.00000000E+00
  0.00000000E+00  0.00000000E+00  0.00000000E+00
  0.00000000E+00  0.00000000E+00  0.00000000E+00
  0.00000000E+00  0.00000000E+00  0.00000000E+00
  0.00000000E+00  0.00000000E+00  0.00000000E+00
  0.00000000E+00  0.00000000E+00  0.00000000E+00
  0.00000000E+00  0.00000000E+00  0.00000000E+00
  0.00000000E+00  0.00000000E+00  0.00000000E+00
  0.00000000E+00  0.00000000E+00  0.00000000E+00
  0.00000000E+00  0.00000000E+00  0.00000000E+00
  0.00000000E+00  0.00000000E+00  0.00000000E+00
  0.00000000E+00  0.00000000E+00  0.00000000E+00
  0.00000000E+00  0.00000000E+00  0.00000000E+00
  0.00000000E+00  0.00000000E+00  0.00000000E+00
  0.00000000E+00  0.00000000E+00  0.00000000E+00
  0.00000000E+00  0.00000000E+00  0.00000000E+00
  0.00000000E+00  0.00000000E+00  0.00000000E+00
  0.00000000E+00  0.00000000E+00  0.00000000E+00
  0.00000000E+00  0.00000000E+00  0.00000000E+00
  0.00000000E+00  0.00000000E+00  0.00000000E+00
  0.00000000E+00  0.00000000E+00  0.00000000E+00
  0.00000000E+00  0.00000000E+00  0.00000000E+00
  0.00000000E+00  0.00000000E+00  0.00000000E+00
  0.00000000E+00  0.00000000E+00  0.00000000E+00
  0.00000000E+00  0.00000000E+00  0.00000000E+00
  0.00000000E+00  0.00000000E+00  0.00000000E+00
  0.00000000E+00  0.00000000E+00  0.00000000E+00
  0.00000000E+00  0.00000000E+00  0.00000000E+00
  0.00000000E+00  0.00000000E+00  0.00000000E+00
  0.00000000E+00  0.00000000E+00  0.00000000E+00
  0.00000000E+00  0.00000000E+00  0.00000000E+00
  0.00000000E+00  0.00000000E+00  0.00000000E+00
  0.00000000E+00  0.00000000E+00  0.00000000E+00
  0.00000000E+00  0.00000000E+00  0.00000000E+00
  0.00000000E+00  0.00000000E+00  0.00000000E+00
  0.00000000E+00  0.00000000E+00  0.00000000E+00
  0.00000000E+00  0.00000000E+00  0.00000000E+00
  0.00000000E+00  0.00000000E+00  0.00000000E+00
  0.00000000E+00  0.00000000E+00  0.00000000E+00
  0.00000000E+00  0.00000000E+00  0.00000000E+00
  0.00000000E+00  0.00000000E+00  0.00000000E+00
  0.00000000E+00  0.00000000E+00  0.00000000E+00
  0.00000000E+00  0.00000000E+00  0.00000000E+00
  0.00000000E+00  0.00000000E+00  0.00000000E+00
  0.00000000E+00  0.00000000E+00  0.00000000E+00
