hexa_FA0250MA0750Cs0000                 
   1.00000000000000     
    17.6889995671790849    0.0542618602705854    0.7459378937361724
    -8.8241525612060379   14.8899518951371359   -0.0265409827855277
     0.3174384097086074    0.1778449316566889    7.8342566026064544
   Pb   I    N    C    H 
     8    24    10     8    46
Direct
  0.5080081391074808  0.5031039755409463  0.9499579854063004
  0.5130550523424512  0.9992465658422361  0.9604174841831867
  0.0034995118845276  0.5041605535266208  0.9481744995733276
  0.0062269144665754  0.0069498766445876  0.9570736189442178
  0.0048458315063933  0.0054282840413312  0.4620177031519439
  0.0003046664228447  0.5074151270369265  0.4508852250960906
  0.5110343303943056  0.9983240502517911  0.4597822665627995
  0.5103630033195889  0.5052659139286076  0.4498915712353573
  0.4422709339404579  0.0957069443658409  0.2218898305512019
  0.4217715328944554  0.5845258182390789  0.2178676753584009
  0.9208928257382689  0.0916372206621712  0.2339324525016762
  0.9361285130563574  0.6075695299939923  0.1974043121318372
  0.4382714052512766  0.3317047013003602  0.2155818425508483
  0.4248875219290569  0.8222956602124780  0.2353803892158962
  0.9029853818716870  0.3350227453392854  0.2268755065577250
  0.9245973188512836  0.8348041449450571  0.2190556966831018
  0.1753516228378265  0.0861747706555742  0.1860063043240267
  0.1687083627485104  0.5784683346642245  0.1816515864147875
  0.6789679167974412  0.0754580013229515  0.1885207788833322
  0.6791959824202224  0.5976195121584593  0.1687091639143057
  0.0841351188123847  0.4186026532722508  0.6727786643470346
  0.0963253733532594  0.9266528991427105  0.7008304996706100
  0.5844464938224795  0.4081410162909872  0.6908851913440023
  0.5964520392590167  0.9106829852345731  0.6944568508955393
  0.0814201639619409  0.1782176082661857  0.6938170306782733
  0.1093676977848824  0.6809698931173170  0.6916656609058102
  0.6158061532248350  0.1711525470061389  0.7003336002421962
  0.6139623968073877  0.6744733035031799  0.6891325075902358
  0.3415103307796735  0.4291600119918259  0.7206909188310743
  0.3436673531690473  0.9280782971969310  0.7483671541427708
  0.8292449402357051  0.4349090529699951  0.7440134298930351
  0.8362265962716352  0.9183728712465543  0.7473344555966961
  0.2290274269727388  0.3171832977111030  0.1963978344993612
  0.1009826601943542  0.3227489704292362  0.1835338676241333
  0.2908544838649978  0.1969126074117822  0.6768390007429286
  0.4083052879229685  0.1733909437238275  0.6974764330895441
  0.2911027303929075  0.6436774578584525  0.5898766490809086
  0.6335671319009436  0.3172822569834597  0.1000396278785608
  0.7989020596170043  0.1279795423114580  0.5931202273673866
  0.6284568973593346  0.8200760563826477  0.0887178766181917
  0.1247110240428615  0.8324672754378570  0.0973402034805523
  0.7917687052292240  0.6225563570534928  0.7578680460293247
  0.1862882538325351  0.3605546149935857  0.1891387370530829
  0.3245360180917536  0.1451169941246102  0.6884543972293142
  0.3406803104348168  0.6656296322900258  0.7447705190609082
  0.6906832162195615  0.3624985285424021  0.2404894770657698
  0.8465988447315205  0.1655452049897998  0.7482642427822922
  0.6894557731805647  0.8430004169416776  0.2253469264511689
  0.1888028114980450  0.8541879584676936  0.2271523738024367
  0.8734409587556008  0.6965850595858081  0.6647189825351675
  0.2246452944527319  0.4339412695624269  0.1875072426275878
  0.2791309542838044  0.0724721768620251  0.6906971376958523
  0.1994983476094077  0.2482843560551305  0.1961546257604792
  0.2958836781865936  0.3516810681496466  0.1991641565681863
  0.0724604746562220  0.3613890875037935  0.1837070267881592
  0.0587576717779336  0.2543604066033112  0.1893773480665119
  0.3268559142889920  0.2656525479364788  0.6785034086107723
  0.2241127773538723  0.1696627726541761  0.6745808956934342
  0.4278476548395181  0.1272941829194119  0.7056877360787054
  0.4559600482931200  0.2402577633001196  0.6941238731439300
  0.2356816735886033  0.6508973343211403  0.6121628375875122
  0.2678648471329370  0.5778505220360586  0.5577289778256171
  0.3294394687629261  0.6855453956069716  0.4840903262929314
  0.2990697014078455  0.6155712876301641  0.8473891990679762
  0.4013677478933469  0.6642265008263399  0.7141352968989477
  0.3555976890354621  0.7324277602356334  0.7831566275729115
  0.5877097609131022  0.3377299532889467  0.0921255376265453
  0.5961796733452677  0.2478315557018760  0.1225683695006217
  0.6702896415482852  0.3311211883903646  0.9821446853975465
  0.6488279454087528  0.3460235978370984  0.3612893264242689
  0.7373520142864215  0.3389509078355940  0.2464753477853146
  0.7262560174521316  0.4350972821783312  0.2127209350305100
  0.7732221545689338  0.1656749363362659  0.5504371561655574
  0.7453802958338585  0.0629496292091017  0.6193906667772737
  0.8393839825791479  0.1247849108567691  0.4919314797205580
  0.8012548398624417  0.1692083100460047  0.8472912813167524
  0.8682191375824434  0.1205655114624846  0.7924906860176584
  0.9035642445286003  0.2323355403981548  0.7146638169848306
  0.6528227250798703  0.8706319321243391  0.9932934606751347
  0.5672381563929610  0.8100163556848293  0.1378853360424704
  0.6178779414466521  0.7625779956480274  0.0284280001084854
  0.6949809388547731  0.9019639683357430  0.2883477914965243
  0.6624968010118187  0.7856509454860063  0.3173388330033943
  0.7539010445827014  0.8578045860384003  0.1661324183820892
  0.1521899360989842  0.8745538019738435  0.9880477921935961
  0.0704000374001547  0.8376595792854341  0.1457217040751553
  0.0988081581060262  0.7670224861454957  0.0595568795405968
  0.2084350520358473  0.9211549635636979  0.2723880605923014
  0.1567898093401967  0.8039791615461027  0.3337707905312362
  0.2462841207579027  0.8528953743457546  0.1674259660245730
  0.7357470366591703  0.6183468269408509  0.7152528856504594
  0.7875376085802775  0.6315208655284010  0.8889276442729500
  0.7885028636917878  0.5608432091253810  0.7435500815704141
  0.8756358988516773  0.7601064637850110  0.6875690016668982
  0.9304870676523821  0.6977182737270486  0.7117430858550934
  0.8718422767230873  0.6840595767116063  0.5276922897179670
 
  0.00000000E+00  0.00000000E+00  0.00000000E+00
  0.00000000E+00  0.00000000E+00  0.00000000E+00
  0.00000000E+00  0.00000000E+00  0.00000000E+00
  0.00000000E+00  0.00000000E+00  0.00000000E+00
  0.00000000E+00  0.00000000E+00  0.00000000E+00
  0.00000000E+00  0.00000000E+00  0.00000000E+00
  0.00000000E+00  0.00000000E+00  0.00000000E+00
  0.00000000E+00  0.00000000E+00  0.00000000E+00
  0.00000000E+00  0.00000000E+00  0.00000000E+00
  0.00000000E+00  0.00000000E+00  0.00000000E+00
  0.00000000E+00  0.00000000E+00  0.00000000E+00
  0.00000000E+00  0.00000000E+00  0.00000000E+00
  0.00000000E+00  0.00000000E+00  0.00000000E+00
  0.00000000E+00  0.00000000E+00  0.00000000E+00
  0.00000000E+00  0.00000000E+00  0.00000000E+00
  0.00000000E+00  0.00000000E+00  0.00000000E+00
  0.00000000E+00  0.00000000E+00  0.00000000E+00
  0.00000000E+00  0.00000000E+00  0.00000000E+00
  0.00000000E+00  0.00000000E+00  0.00000000E+00
  0.00000000E+00  0.00000000E+00  0.00000000E+00
  0.00000000E+00  0.00000000E+00  0.00000000E+00
  0.00000000E+00  0.00000000E+00  0.00000000E+00
  0.00000000E+00  0.00000000E+00  0.00000000E+00
  0.00000000E+00  0.00000000E+00  0.00000000E+00
  0.00000000E+00  0.00000000E+00  0.00000000E+00
  0.00000000E+00  0.00000000E+00  0.00000000E+00
  0.00000000E+00  0.00000000E+00  0.00000000E+00
  0.00000000E+00  0.00000000E+00  0.00000000E+00
  0.00000000E+00  0.00000000E+00  0.00000000E+00
  0.00000000E+00  0.00000000E+00  0.00000000E+00
  0.00000000E+00  0.00000000E+00  0.00000000E+00
  0.00000000E+00  0.00000000E+00  0.00000000E+00
  0.00000000E+00  0.00000000E+00  0.00000000E+00
  0.00000000E+00  0.00000000E+00  0.00000000E+00
  0.00000000E+00  0.00000000E+00  0.00000000E+00
  0.00000000E+00  0.00000000E+00  0.00000000E+00
  0.00000000E+00  0.00000000E+00  0.00000000E+00
  0.00000000E+00  0.00000000E+00  0.00000000E+00
  0.00000000E+00  0.00000000E+00  0.00000000E+00
  0.00000000E+00  0.00000000E+00  0.00000000E+00
  0.00000000E+00  0.00000000E+00  0.00000000E+00
  0.00000000E+00  0.00000000E+00  0.00000000E+00
  0.00000000E+00  0.00000000E+00  0.00000000E+00
  0.00000000E+00  0.00000000E+00  0.00000000E+00
  0.00000000E+00  0.00000000E+00  0.00000000E+00
  0.00000000E+00  0.00000000E+00  0.00000000E+00
  0.00000000E+00  0.00000000E+00  0.00000000E+00
  0.00000000E+00  0.00000000E+00  0.00000000E+00
  0.00000000E+00  0.00000000E+00  0.00000000E+00
  0.00000000E+00  0.00000000E+00  0.00000000E+00
  0.00000000E+00  0.00000000E+00  0.00000000E+00
  0.00000000E+00  0.00000000E+00  0.00000000E+00
  0.00000000E+00  0.00000000E+00  0.00000000E+00
  0.00000000E+00  0.00000000E+00  0.00000000E+00
  0.00000000E+00  0.00000000E+00  0.00000000E+00
  0.00000000E+00  0.00000000E+00  0.00000000E+00
  0.00000000E+00  0.00000000E+00  0.00000000E+00
  0.00000000E+00  0.00000000E+00  0.00000000E+00
  0.00000000E+00  0.00000000E+00  0.00000000E+00
  0.00000000E+00  0.00000000E+00  0.00000000E+00
  0.00000000E+00  0.00000000E+00  0.00000000E+00
  0.00000000E+00  0.00000000E+00  0.00000000E+00
  0.00000000E+00  0.00000000E+00  0.00000000E+00
  0.00000000E+00  0.00000000E+00  0.00000000E+00
  0.00000000E+00  0.00000000E+00  0.00000000E+00
  0.00000000E+00  0.00000000E+00  0.00000000E+00
  0.00000000E+00  0.00000000E+00  0.00000000E+00
  0.00000000E+00  0.00000000E+00  0.00000000E+00
  0.00000000E+00  0.00000000E+00  0.00000000E+00
  0.00000000E+00  0.00000000E+00  0.00000000E+00
  0.00000000E+00  0.00000000E+00  0.00000000E+00
  0.00000000E+00  0.00000000E+00  0.00000000E+00
  0.00000000E+00  0.00000000E+00  0.00000000E+00
  0.00000000E+00  0.00000000E+00  0.00000000E+00
  0.00000000E+00  0.00000000E+00  0.00000000E+00
  0.00000000E+00  0.00000000E+00  0.00000000E+00
  0.00000000E+00  0.00000000E+00  0.00000000E+00
  0.00000000E+00  0.00000000E+00  0.00000000E+00
  0.00000000E+00  0.00000000E+00  0.00000000E+00
  0.00000000E+00  0.00000000E+00  0.00000000E+00
  0.00000000E+00  0.00000000E+00  0.00000000E+00
  0.00000000E+00  0.00000000E+00  0.00000000E+00
  0.00000000E+00  0.00000000E+00  0.00000000E+00
  0.00000000E+00  0.00000000E+00  0.00000000E+00
  0.00000000E+00  0.00000000E+00  0.00000000E+00
  0.00000000E+00  0.00000000E+00  0.00000000E+00
  0.00000000E+00  0.00000000E+00  0.00000000E+00
  0.00000000E+00  0.00000000E+00  0.00000000E+00
  0.00000000E+00  0.00000000E+00  0.00000000E+00
  0.00000000E+00  0.00000000E+00  0.00000000E+00
  0.00000000E+00  0.00000000E+00  0.00000000E+00
  0.00000000E+00  0.00000000E+00  0.00000000E+00
  0.00000000E+00  0.00000000E+00  0.00000000E+00
  0.00000000E+00  0.00000000E+00  0.00000000E+00
  0.00000000E+00  0.00000000E+00  0.00000000E+00
  0.00000000E+00  0.00000000E+00  0.00000000E+00
