hexa_FA0250MA0625Cs0125                 
   1.00000000000000     
    17.9642696842211897    0.0461697259584079    0.3550850249702304
    -8.9430902484112220   14.6831232114951433   -0.3696622492861649
     0.1497288266285842   -0.1012371336783579    7.7895979731590010
   Pb   I    N    C    H    Cs
     8    24     9     7    40     1
Direct
  0.4954023129379400  0.4971519739189671  0.9503850437146480
  0.4980422888166459  0.9980096234635026  0.9632371136872346
  0.0051913018193847  0.4919750785179557  0.9537283521962930
  0.0013652324946498  0.9875647872942787  0.9377379950054382
  0.0055521156579933  0.9893099127006834  0.4397171584906603
  0.0022393163753373  0.4887276089932523  0.4566935045239791
  0.4989984103166391  0.9999400792273810  0.4682792176787229
  0.4926620949843085  0.4972222591767737  0.4606635172808433
  0.4153693835962146  0.0848100917295969  0.2283472387197581
  0.4057465779368908  0.5815711020951144  0.2302693574490829
  0.9159693695999044  0.0671471502866181  0.2097110980645540
  0.9120575769284223  0.5683129301133524  0.2329222663278303
  0.3943020194775501  0.3229187621961503  0.2008841922331879
  0.4023798119421302  0.8254594361929403  0.2142217473186513
  0.9307977758592658  0.3155254569901531  0.1956265755213184
  0.9358600052687051  0.8153450470191914  0.1838898696244396
  0.1750327100757049  0.0819604251647716  0.1779727761914011
  0.1709532337746728  0.5788609659183367  0.2002801475062367
  0.6711287493864873  0.0836971074530921  0.2195430631398451
  0.6635967615051835  0.5798210490370597  0.2077931480936260
  0.0963546869681772  0.4123235601662272  0.6959620450607014
  0.1036827609841500  0.9197750579000873  0.6830972393380081
  0.5837580958359048  0.4197598261974080  0.6911303013491390
  0.5924215200997242  0.9227326460948970  0.7013631477169805
  0.0809285997080214  0.1638588824778629  0.7062692175062791
  0.0889183549596707  0.6656090698419455  0.7162862773172450
  0.5824582513406034  0.1736498853687325  0.7304376711978495
  0.5824560206140812  0.6710913890675116  0.7181796312677931
  0.3251747028848909  0.4009746848681601  0.7200013395693858
  0.3315373135722225  0.9011157416022545  0.7306938271089155
  0.8353582544629516  0.3898790461864586  0.7153702246553796
  0.8384490290275221  0.8790939799787747  0.6852158141840264
  0.7243847726463865  0.3188787411684109  0.1931202784712374
  0.7271186388310772  0.8193632498282687  0.1885928882478692
  0.5942550858914045  0.3179787529222867  0.1856236345772284
  0.5945800546791893  0.8135647108451768  0.1887002590582180
  0.1751596628488894  0.8695058883239448  0.0854929347216598
  0.7751118193427864  0.1506939327135974  0.6591059120296271
  0.8151184888842745  0.6560603620045115  0.5813605378096348
  0.2906023034939298  0.6252480750421229  0.6009289201436750
  0.2790820260261083  0.1527193671940298  0.6498732991132871
  0.6795583940962180  0.3594058637596497  0.1871616744571294
  0.6798744786089497  0.8574436580397482  0.1875199360658552
  0.1818348584559668  0.8398864019165966  0.2587324803687073
  0.8566707748871081  0.1497359284098388  0.6823187985392311
  0.8251486455819633  0.6346976139006709  0.7597897544802841
  0.3508211216843772  0.6692981033351838  0.7478720263235495
  0.3624098357485182  0.1591070408400521  0.6931791551155151
  0.7164400084893531  0.4337570714178895  0.1836108563812390
  0.7147396226853047  0.9318701227365205  0.1856916301806242
  0.6966684044713098  0.2494952722600928  0.1963759482818505
  0.7009390488486630  0.7501391365510545  0.1907130792489646
  0.7908614360500320  0.3572988278578991  0.1937730151509176
  0.7933973090703649  0.8596830622314873  0.1887312365378748
  0.5645562503684803  0.3550059457355336  0.1829183540555404
  0.5620931039429913  0.8480836252829433  0.1897251339010420
  0.5534183225703330  0.2485449636089080  0.1910521683581484
  0.5555561042136298  0.7439681233809009  0.1931167968238576
  0.1756208921101843  0.9306145153288592  0.0951391180911668
  0.1181080176231556  0.8221869952032642  0.0260066430573818
  0.2263277969949863  0.8796338627087874  0.0028259722253154
  0.1264822699312600  0.8309525284828558  0.3384504934612599
  0.1811080782768191  0.7758084815465097  0.2449316247084250
  0.2430678552274296  0.8929951840987523  0.3153643543917733
  0.7617599463638065  0.1492016473704764  0.5299618953920784
  0.7789207722938567  0.2090317048055805  0.7134995347730588
  0.7208287737675668  0.0929637392324997  0.7100908891818053
  0.9116234111734257  0.2112199130375761  0.6271736601256606
  0.8663185135710002  0.1481859765719419  0.8199325403976447
  0.8502636438622159  0.0889929607158333  0.6166061175957707
  0.8309499446147727  0.7235789657379706  0.5756913588940973
  0.7514993606572488  0.6154569991911737  0.5405292200806445
  0.8541151530726206  0.6456607931041375  0.4926899274532347
  0.7829796936367130  0.6476855582738738  0.8462007631930486
  0.8058192875146066  0.5629590451516558  0.7631347226026679
  0.8933462908633686  0.6785660060593294  0.7959592560316929
  0.2611103748436779  0.6608051232499242  0.5702393277438912
  0.2398687925078362  0.5593594076654609  0.6300147311607772
  0.3227935141014424  0.6202305473141163  0.4907601963728816
  0.3127289242368783  0.6674255142799765  0.8625897500925089
  0.3836713254534183  0.6318042982144180  0.7685238390115492
  0.3988979532642580  0.7398232913848757  0.7162534050801006
  0.2755073498293352  0.1597651842238632  0.5195704462458066
  0.2713860061316303  0.2025947066553699  0.7124733665470405
  0.2252965424129966  0.0889935437881323  0.6809884850304277
  0.4171904680790286  0.2259823240126116  0.6574582380938562
  0.3624588307780927  0.1498915419180336  0.8315143482352814
  0.3663361787941369  0.1051634510638904  0.6213479389324473
  0.1663587025970567  0.3355267286640641  0.1516278691072117
 
  0.00000000E+00  0.00000000E+00  0.00000000E+00
  0.00000000E+00  0.00000000E+00  0.00000000E+00
  0.00000000E+00  0.00000000E+00  0.00000000E+00
  0.00000000E+00  0.00000000E+00  0.00000000E+00
  0.00000000E+00  0.00000000E+00  0.00000000E+00
  0.00000000E+00  0.00000000E+00  0.00000000E+00
  0.00000000E+00  0.00000000E+00  0.00000000E+00
  0.00000000E+00  0.00000000E+00  0.00000000E+00
  0.00000000E+00  0.00000000E+00  0.00000000E+00
  0.00000000E+00  0.00000000E+00  0.00000000E+00
  0.00000000E+00  0.00000000E+00  0.00000000E+00
  0.00000000E+00  0.00000000E+00  0.00000000E+00
  0.00000000E+00  0.00000000E+00  0.00000000E+00
  0.00000000E+00  0.00000000E+00  0.00000000E+00
  0.00000000E+00  0.00000000E+00  0.00000000E+00
  0.00000000E+00  0.00000000E+00  0.00000000E+00
  0.00000000E+00  0.00000000E+00  0.00000000E+00
  0.00000000E+00  0.00000000E+00  0.00000000E+00
  0.00000000E+00  0.00000000E+00  0.00000000E+00
  0.00000000E+00  0.00000000E+00  0.00000000E+00
  0.00000000E+00  0.00000000E+00  0.00000000E+00
  0.00000000E+00  0.00000000E+00  0.00000000E+00
  0.00000000E+00  0.00000000E+00  0.00000000E+00
  0.00000000E+00  0.00000000E+00  0.00000000E+00
  0.00000000E+00  0.00000000E+00  0.00000000E+00
  0.00000000E+00  0.00000000E+00  0.00000000E+00
  0.00000000E+00  0.00000000E+00  0.00000000E+00
  0.00000000E+00  0.00000000E+00  0.00000000E+00
  0.00000000E+00  0.00000000E+00  0.00000000E+00
  0.00000000E+00  0.00000000E+00  0.00000000E+00
  0.00000000E+00  0.00000000E+00  0.00000000E+00
  0.00000000E+00  0.00000000E+00  0.00000000E+00
  0.00000000E+00  0.00000000E+00  0.00000000E+00
  0.00000000E+00  0.00000000E+00  0.00000000E+00
  0.00000000E+00  0.00000000E+00  0.00000000E+00
  0.00000000E+00  0.00000000E+00  0.00000000E+00
  0.00000000E+00  0.00000000E+00  0.00000000E+00
  0.00000000E+00  0.00000000E+00  0.00000000E+00
  0.00000000E+00  0.00000000E+00  0.00000000E+00
  0.00000000E+00  0.00000000E+00  0.00000000E+00
  0.00000000E+00  0.00000000E+00  0.00000000E+00
  0.00000000E+00  0.00000000E+00  0.00000000E+00
  0.00000000E+00  0.00000000E+00  0.00000000E+00
  0.00000000E+00  0.00000000E+00  0.00000000E+00
  0.00000000E+00  0.00000000E+00  0.00000000E+00
  0.00000000E+00  0.00000000E+00  0.00000000E+00
  0.00000000E+00  0.00000000E+00  0.00000000E+00
  0.00000000E+00  0.00000000E+00  0.00000000E+00
  0.00000000E+00  0.00000000E+00  0.00000000E+00
  0.00000000E+00  0.00000000E+00  0.00000000E+00
  0.00000000E+00  0.00000000E+00  0.00000000E+00
  0.00000000E+00  0.00000000E+00  0.00000000E+00
  0.00000000E+00  0.00000000E+00  0.00000000E+00
  0.00000000E+00  0.00000000E+00  0.00000000E+00
  0.00000000E+00  0.00000000E+00  0.00000000E+00
  0.00000000E+00  0.00000000E+00  0.00000000E+00
  0.00000000E+00  0.00000000E+00  0.00000000E+00
  0.00000000E+00  0.00000000E+00  0.00000000E+00
  0.00000000E+00  0.00000000E+00  0.00000000E+00
  0.00000000E+00  0.00000000E+00  0.00000000E+00
  0.00000000E+00  0.00000000E+00  0.00000000E+00
  0.00000000E+00  0.00000000E+00  0.00000000E+00
  0.00000000E+00  0.00000000E+00  0.00000000E+00
  0.00000000E+00  0.00000000E+00  0.00000000E+00
  0.00000000E+00  0.00000000E+00  0.00000000E+00
  0.00000000E+00  0.00000000E+00  0.00000000E+00
  0.00000000E+00  0.00000000E+00  0.00000000E+00
  0.00000000E+00  0.00000000E+00  0.00000000E+00
  0.00000000E+00  0.00000000E+00  0.00000000E+00
  0.00000000E+00  0.00000000E+00  0.00000000E+00
  0.00000000E+00  0.00000000E+00  0.00000000E+00
  0.00000000E+00  0.00000000E+00  0.00000000E+00
  0.00000000E+00  0.00000000E+00  0.00000000E+00
  0.00000000E+00  0.00000000E+00  0.00000000E+00
  0.00000000E+00  0.00000000E+00  0.00000000E+00
  0.00000000E+00  0.00000000E+00  0.00000000E+00
  0.00000000E+00  0.00000000E+00  0.00000000E+00
  0.00000000E+00  0.00000000E+00  0.00000000E+00
  0.00000000E+00  0.00000000E+00  0.00000000E+00
  0.00000000E+00  0.00000000E+00  0.00000000E+00
  0.00000000E+00  0.00000000E+00  0.00000000E+00
  0.00000000E+00  0.00000000E+00  0.00000000E+00
  0.00000000E+00  0.00000000E+00  0.00000000E+00
  0.00000000E+00  0.00000000E+00  0.00000000E+00
  0.00000000E+00  0.00000000E+00  0.00000000E+00
  0.00000000E+00  0.00000000E+00  0.00000000E+00
  0.00000000E+00  0.00000000E+00  0.00000000E+00
  0.00000000E+00  0.00000000E+00  0.00000000E+00
  0.00000000E+00  0.00000000E+00  0.00000000E+00
