cubic_FA0000MA1000Cs0000                
   1.00000000000000     
    12.7082036409337693    0.0909573439959819    0.0814153038626734
     0.0909432519763336   12.7216756202661117    0.0799941116404505
     0.0806654582865516    0.0799494361568106   12.6727984034447410
   Cs   I    Pb   C    N    H 
     0    24     8     8     8    48
Direct
  0.0166902934873142  0.9764518963902712  0.2570667629962708
  0.0375897341455519  0.0376065745322742  0.7542211649962040
  0.0031144994560184  0.5146021436249587  0.2564207049573261
  0.0346465261449972  0.4679331373726283  0.7543160835121754
  0.5412585353768287  0.9998814586479716  0.2558995318564055
  0.5318214066932142  0.0148244688394137  0.7550719049657650
  0.5410460804679916  0.5033076157756446  0.2573266768166984
  0.5135281240609347  0.4967120128296121  0.7574724621887339
  0.0086098351787328  0.2531985072609584  0.0319120621450246
  0.0180213675418766  0.2590180790643867  0.4869219162564514
  0.0083186521850615  0.7521971050775240  0.0128838169901107
  0.0295281402030582  0.7574803153563385  0.5366317991389339
  0.5200568494306800  0.2577773978516143  0.0024760291030002
  0.4819551769756955  0.2589193623843027  0.5152548252609360
  0.5151251480462401  0.7576913935883521  0.0072408951142472
  0.5242566040613127  0.7577572466219926  0.5308779430403689
  0.2613421397037775  0.5265386957962757  0.4963818182537507
  0.2607729692218649  0.5325701641730223  0.0023353253599132
  0.2643685874404212  0.0102045588912273  0.4765580271877894
  0.2660876046572009  0.0178391293996204  0.0200355711457457
  0.7602248432894938  0.4878907099301407  0.5278869349295000
  0.7612198435896729  0.5157853785520949  0.9887336702969931
  0.7649124341063248  0.0239747485223050  0.5059601309502800
  0.7666740081534642  0.9863033685365404  0.9967426351192243
  0.5127470605848895  0.0084187924364057  0.0059362802320155
  0.5107547284015472  0.0064846667274483  0.5039586102913369
  0.5081022881203292  0.5052405397997748  0.0062191497968231
  0.5105984672087964  0.5089137834985779  0.5057624352753829
  0.0142999572492582  0.0035774703005739  0.0046283685651493
  0.0124048360507592  0.0051121482194725  0.5069032378801223
  0.0094500569624553  0.5010646041491073  0.0043896055322551
  0.0039780935993150  0.5077182061817587  0.5072293537707302
  0.7663516784969082  0.7723437234543538  0.2866095807083264
  0.2719206327287060  0.7858261950476566  0.7540816447725046
  0.7916912126690763  0.7604597592550018  0.7336699868109476
  0.7749329397621723  0.2619491357279971  0.7891676218208340
  0.7863392491996517  0.2543995833155508  0.2691154425879530
  0.2834588083614434  0.2654791388770413  0.2433111539236685
  0.2766573027853836  0.2581555303559540  0.7924381670540702
  0.2873492414663879  0.7731946452851421  0.2354936746948801
  0.7436711990114030  0.7295143204184129  0.1802984283978796
  0.2271224239939097  0.6784075126129482  0.7472122243036038
  0.6815360741050707  0.7391756860582417  0.7685018098098992
  0.7149631976495242  0.2327327452680507  0.6936908635901357
  0.6757748808849844  0.2473105392289592  0.2325236955251957
  0.1773404224949409  0.2184467315498791  0.2548689640069399
  0.2253942599996391  0.2415644683701501  0.6889471627492434
  0.1862930910863521  0.7290197118866546  0.2761408096330178
  0.6706487672159287  0.7542156439088276  0.1517330052486409
  0.7432761087978137  0.6480738441751843  0.1800248907351389
  0.7997528359521580  0.7528429573325773  0.1247599179586347
  0.7096071671662187  0.7406697137783109  0.3440076232608050
  0.8466753754207273  0.7489622749376581  0.3078977085020904
  0.7590350726198949  0.8582406750797481  0.2824937126309012
  0.1463569425860112  0.6811709351531170  0.7374609570503762
  0.2419391819452291  0.6334467448724878  0.8151259573822599
  0.2566996705489426  0.6373520553472097  0.6822985592438713
  0.2402389919811519  0.8238099061908449  0.8250293900670337
  0.3577193725750357  0.7786996852444492  0.7583654883069569
  0.2494434137626832  0.8309914420128910  0.6834308812288619
  0.6295779830435700  0.7493687622466001  0.7055481440316346
  0.6561871973428346  0.7881538690595264  0.8288017983309502
  0.6728641982549433  0.6625815906418345  0.7959234092297143
  0.7949640900475402  0.8406407284759201  0.7012921433326419
  0.8438114736921339  0.7518182048876274  0.8015310948151023
  0.8135655885817347  0.7038321054104174  0.6724587672935165
  0.6621871641267825  0.2913454140001681  0.6710545232266797
  0.6714354286210711  0.1646445149259029  0.7070921316997939
  0.7637060055464210  0.2177783675689597  0.6293675570162635
  0.7199608067035964  0.2648487834202335  0.8563110793360292
  0.8363905950942088  0.2020955209266680  0.8028733808293473
  0.8102635298632729  0.3390251822444762  0.7754356835160513
  0.6686192346942289  0.2565869178113623  0.1512371943439480
  0.6282232151932574  0.3062222609121412  0.2649580525512226
  0.6424479711993731  0.1743569288760619  0.2508840064971508
  0.8127556458813506  0.3355291200602412  0.2587881333250374
  0.7889895173633755  0.2310190920433500  0.3525239344731421
  0.8361136843740774  0.2013354330673040  0.2220597860812183
  0.1304188115299828  0.2345435801114524  0.1889994363189308
  0.1363788863342175  0.2458626129950281  0.3213652377689909
  0.1810583340367991  0.1372662243097696  0.2629775669591125
  0.2742669586482397  0.3508424703393144  0.2339716005354353
  0.3289923706700598  0.2467445445205742  0.3141535143089012
  0.3224279661320201  0.2323635177376997  0.1733070696543634
  0.1766041295846012  0.3047232991212736  0.6691408040785577
  0.1775135444880292  0.1753079600643391  0.6926036425951471
  0.2804529308531789  0.2317144706130998  0.6285300212242138
  0.2149645328000884  0.2661455824254513  0.8530849407641811
  0.3272634352110577  0.1898983824291111  0.8101364235345404
  0.3236049808706671  0.3296532976708229  0.7873106127712663
  0.1275136174939563  0.7365401780831432  0.2202798501656799
  0.1591808115406679  0.7662877862299562  0.3439249599602020
  0.1931961933631442  0.6497304772808029  0.2951785525062997
  0.2757485746356066  0.8576223375298970  0.2206245196073993
  0.3483739380966014  0.7596355953200792  0.2945061745806362
  0.3083038306276372  0.7335589109254230  0.1617256737238784
 
  0.00000000E+00  0.00000000E+00  0.00000000E+00
  0.00000000E+00  0.00000000E+00  0.00000000E+00
  0.00000000E+00  0.00000000E+00  0.00000000E+00
  0.00000000E+00  0.00000000E+00  0.00000000E+00
  0.00000000E+00  0.00000000E+00  0.00000000E+00
  0.00000000E+00  0.00000000E+00  0.00000000E+00
  0.00000000E+00  0.00000000E+00  0.00000000E+00
  0.00000000E+00  0.00000000E+00  0.00000000E+00
  0.00000000E+00  0.00000000E+00  0.00000000E+00
  0.00000000E+00  0.00000000E+00  0.00000000E+00
  0.00000000E+00  0.00000000E+00  0.00000000E+00
  0.00000000E+00  0.00000000E+00  0.00000000E+00
  0.00000000E+00  0.00000000E+00  0.00000000E+00
  0.00000000E+00  0.00000000E+00  0.00000000E+00
  0.00000000E+00  0.00000000E+00  0.00000000E+00
  0.00000000E+00  0.00000000E+00  0.00000000E+00
  0.00000000E+00  0.00000000E+00  0.00000000E+00
  0.00000000E+00  0.00000000E+00  0.00000000E+00
  0.00000000E+00  0.00000000E+00  0.00000000E+00
  0.00000000E+00  0.00000000E+00  0.00000000E+00
  0.00000000E+00  0.00000000E+00  0.00000000E+00
  0.00000000E+00  0.00000000E+00  0.00000000E+00
  0.00000000E+00  0.00000000E+00  0.00000000E+00
  0.00000000E+00  0.00000000E+00  0.00000000E+00
  0.00000000E+00  0.00000000E+00  0.00000000E+00
  0.00000000E+00  0.00000000E+00  0.00000000E+00
  0.00000000E+00  0.00000000E+00  0.00000000E+00
  0.00000000E+00  0.00000000E+00  0.00000000E+00
  0.00000000E+00  0.00000000E+00  0.00000000E+00
  0.00000000E+00  0.00000000E+00  0.00000000E+00
  0.00000000E+00  0.00000000E+00  0.00000000E+00
  0.00000000E+00  0.00000000E+00  0.00000000E+00
  0.00000000E+00  0.00000000E+00  0.00000000E+00
  0.00000000E+00  0.00000000E+00  0.00000000E+00
  0.00000000E+00  0.00000000E+00  0.00000000E+00
  0.00000000E+00  0.00000000E+00  0.00000000E+00
  0.00000000E+00  0.00000000E+00  0.00000000E+00
  0.00000000E+00  0.00000000E+00  0.00000000E+00
  0.00000000E+00  0.00000000E+00  0.00000000E+00
  0.00000000E+00  0.00000000E+00  0.00000000E+00
  0.00000000E+00  0.00000000E+00  0.00000000E+00
  0.00000000E+00  0.00000000E+00  0.00000000E+00
  0.00000000E+00  0.00000000E+00  0.00000000E+00
  0.00000000E+00  0.00000000E+00  0.00000000E+00
  0.00000000E+00  0.00000000E+00  0.00000000E+00
  0.00000000E+00  0.00000000E+00  0.00000000E+00
  0.00000000E+00  0.00000000E+00  0.00000000E+00
  0.00000000E+00  0.00000000E+00  0.00000000E+00
  0.00000000E+00  0.00000000E+00  0.00000000E+00
  0.00000000E+00  0.00000000E+00  0.00000000E+00
  0.00000000E+00  0.00000000E+00  0.00000000E+00
  0.00000000E+00  0.00000000E+00  0.00000000E+00
  0.00000000E+00  0.00000000E+00  0.00000000E+00
  0.00000000E+00  0.00000000E+00  0.00000000E+00
  0.00000000E+00  0.00000000E+00  0.00000000E+00
  0.00000000E+00  0.00000000E+00  0.00000000E+00
  0.00000000E+00  0.00000000E+00  0.00000000E+00
  0.00000000E+00  0.00000000E+00  0.00000000E+00
  0.00000000E+00  0.00000000E+00  0.00000000E+00
  0.00000000E+00  0.00000000E+00  0.00000000E+00
  0.00000000E+00  0.00000000E+00  0.00000000E+00
  0.00000000E+00  0.00000000E+00  0.00000000E+00
  0.00000000E+00  0.00000000E+00  0.00000000E+00
  0.00000000E+00  0.00000000E+00  0.00000000E+00
  0.00000000E+00  0.00000000E+00  0.00000000E+00
  0.00000000E+00  0.00000000E+00  0.00000000E+00
  0.00000000E+00  0.00000000E+00  0.00000000E+00
  0.00000000E+00  0.00000000E+00  0.00000000E+00
  0.00000000E+00  0.00000000E+00  0.00000000E+00
  0.00000000E+00  0.00000000E+00  0.00000000E+00
  0.00000000E+00  0.00000000E+00  0.00000000E+00
  0.00000000E+00  0.00000000E+00  0.00000000E+00
  0.00000000E+00  0.00000000E+00  0.00000000E+00
  0.00000000E+00  0.00000000E+00  0.00000000E+00
  0.00000000E+00  0.00000000E+00  0.00000000E+00
  0.00000000E+00  0.00000000E+00  0.00000000E+00
  0.00000000E+00  0.00000000E+00  0.00000000E+00
  0.00000000E+00  0.00000000E+00  0.00000000E+00
  0.00000000E+00  0.00000000E+00  0.00000000E+00
  0.00000000E+00  0.00000000E+00  0.00000000E+00
  0.00000000E+00  0.00000000E+00  0.00000000E+00
  0.00000000E+00  0.00000000E+00  0.00000000E+00
  0.00000000E+00  0.00000000E+00  0.00000000E+00
  0.00000000E+00  0.00000000E+00  0.00000000E+00
  0.00000000E+00  0.00000000E+00  0.00000000E+00
  0.00000000E+00  0.00000000E+00  0.00000000E+00
  0.00000000E+00  0.00000000E+00  0.00000000E+00
  0.00000000E+00  0.00000000E+00  0.00000000E+00
  0.00000000E+00  0.00000000E+00  0.00000000E+00
  0.00000000E+00  0.00000000E+00  0.00000000E+00
  0.00000000E+00  0.00000000E+00  0.00000000E+00
  0.00000000E+00  0.00000000E+00  0.00000000E+00
  0.00000000E+00  0.00000000E+00  0.00000000E+00
  0.00000000E+00  0.00000000E+00  0.00000000E+00
  0.00000000E+00  0.00000000E+00  0.00000000E+00
  0.00000000E+00  0.00000000E+00  0.00000000E+00
