hexa_FA0625MA0375Cs0000                 
   1.00000000000000     
    18.7392676669760583    0.0480823746273412    0.2958211066619601
    -9.3345089651984559   14.5091309488481066    0.0167486236171441
     0.1210867303145521    0.0866305325842196    7.7345676404334398
   Pb   I    N    C    H 
     8    24    13     8    43
Direct
  0.5046939079222305  0.4986797965847410  0.9489019515375197
  0.5128659181494859  0.0041262100857350  0.9334319238955724
  0.9987848589014932  0.4976001264813239  0.9485879790756728
  0.9921449851272640  0.0008886920848612  0.9527356450816238
  0.9925368374145668  0.9995176037720013  0.4531125432383756
  0.0017012676988614  0.5017295400526575  0.4506821081531017
  0.5119176831671136  0.0012808364953011  0.4309788759297442
  0.5064089189947450  0.5028729259602297  0.4434326400781737
  0.4419844450304519  0.0975554221202929  0.1903321612783628
  0.4363105960611697  0.5936949243149284  0.1993193946839478
  0.9160511984524818  0.0905388848580113  0.2174057291253296
  0.9317162073491627  0.5959034432153162  0.2014320527048464
  0.4167100836682503  0.3214507824679717  0.2134418427136923
  0.4217424884567852  0.8246647967139338  0.1860686033239449
  0.9011100477945851  0.3215714542878551  0.2237530178130138
  0.9022817729729701  0.8243305202365034  0.2078097882542397
  0.1558351544980103  0.0801845261080190  0.1951135783080554
  0.1651281259224940  0.5795903696105413  0.1844321970293604
  0.6749498067907557  0.0721488933945877  0.1703532915167235
  0.6676907462823540  0.5797942216865749  0.1818838889740754
  0.0809589085293461  0.4167984261911538  0.6912480773690783
  0.0758166610914282  0.9198751720090035  0.7021110780235031
  0.5870919329034292  0.4116681749335997  0.6942215537010771
  0.5905172619985258  0.9160749253533207  0.6813993330635101
  0.0810514567363114  0.1777067990535088  0.6925385060771618
  0.0905029035843917  0.6789714832745489  0.7051920164096523
  0.6107510293680973  0.1787810162589274  0.6696044734550356
  0.5901390761800940  0.6772167904177759  0.6992205906903323
  0.3412967701665371  0.4200311633514026  0.7048000372489281
  0.3489682758785388  0.9256132300132046  0.6957385561240678
  0.8379937781796691  0.4172092746879389  0.7099675493807205
  0.8251649612748603  0.9139508335620310  0.7245517518206056
  0.2246183228264176  0.3234831480763504  0.1894631512084881
  0.2238326550900974  0.8198686117140328  0.1877751300906064
  0.1016780239903954  0.3263040244121586  0.1880055263359822
  0.1054679534764642  0.8312476790383626  0.1862692729994751
  0.2775312737312124  0.1800512529961253  0.6863660903719315
  0.2758943820057273  0.6772490573078979  0.6847813288588237
  0.7782176684432235  0.6768322285404381  0.6854151375414349
  0.4003467296329882  0.1765161008167668  0.6871520200314857
  0.3997861457862912  0.6765348549206336  0.6862743561928416
  0.9026688323546476  0.6775872051470846  0.6889446590264168
  0.8066871079168841  0.1451866267118016  0.5804794958619476
  0.6177362402499378  0.3365135296765584  0.1646043412455852
  0.6591074132717001  0.8548932636708766  0.0885102910342037
  0.1842857834306937  0.3664922151718952  0.1880124631587856
  0.1874350390140782  0.8670977532802381  0.1875084848998381
  0.3176103375234842  0.1369039512048152  0.6866604192837087
  0.3169182015053668  0.6351902409227147  0.6861346153347407
  0.8200521996404130  0.6355529961722497  0.6862235765999601
  0.8435610792238835  0.1593785670434023  0.7547429820666040
  0.7063227714881151  0.3630944966448969  0.1948636317133769
  0.6870551460682598  0.8468392996117808  0.2626104281295319
  0.2223169373047834  0.4418001160492059  0.1865539225052004
  0.2287066088847321  0.9422388133130075  0.1884162779488254
  0.2790488416282803  0.0615898896896396  0.6866274299213949
  0.2790774989708519  0.5598758724180204  0.6872399954692846
  0.7832097761754173  0.5602506457075701  0.6845600382182049
  0.1945902377784431  0.2529786990202395  0.1908942627925895
  0.1908658232218046  0.7491250280060129  0.1859949497914022
  0.2892892042810358  0.3600492780862397  0.1901722667360712
  0.2884331314987545  0.8526414854816996  0.1879001879153021
  0.0759103262850012  0.3655941188855439  0.1891599099822863
  0.0825294037902380  0.8732512418853571  0.1868057842914001
  0.0596144165475166  0.2561271714151585  0.1916846189988267
  0.0610815636092650  0.7611403451162800  0.1862328179295736
  0.3075193010027640  0.2506759298861738  0.6868757523955628
  0.3051887598305064  0.7475619036863644  0.6854350692244012
  0.8065691760130043  0.7469507211172242  0.6894997546063784
  0.2126439639825994  0.1436918745553641  0.6864827868973742
  0.2109793849191710  0.6397372953281028  0.6867687335012623
  0.7135047417749990  0.6389691120737938  0.6853879602115299
  0.4253190338399572  0.1365050260825870  0.6862762462417822
  0.4267760602540711  0.6384803979239679  0.6873638918522821
  0.9304213026766274  0.6402173470807876  0.6901860650875397
  0.4427179072274277  0.2466784895718288  0.6867980479670868
  0.4407122932026930  0.7466969060833241  0.6846832024634187
  0.9431111741070555  0.7479865851225238  0.6908913989887384
  0.8292525645826734  0.2069729474395358  0.5132862508569145
  0.7411047970041427  0.1105606449965400  0.5897787113205778
  0.8223141468895967  0.1070990325503271  0.5025386953711748
  0.8291512826450015  0.2036716828790661  0.8288660253060658
  0.8151936446865892  0.0921204913288315  0.8198108504069329
  0.9122842485746063  0.1917221144725181  0.7380329613394678
  0.6130419136386965  0.3610383460275825  0.0457206568844147
  0.5963053452591319  0.3638608135467715  0.2560364149346850
  0.5744632008551122  0.2652272479328462  0.1684295061211627
  0.7466639984561727  0.4383037961983187  0.2006152464467525
  0.7073952484224929  0.3318861973254554  0.3174964262360601
  0.7283724739441327  0.3388283320458806  0.0876067912442075
  0.6535392746806501  0.9120933159917063  0.0836996005220505
  0.6009974331010034  0.7972148648269439  0.0613823999368054
  0.7022703136822822  0.8637131694829824  0.9903646353685625
  0.6414687566390148  0.8425036760317745  0.3606499031177556
  0.6899672683517359  0.7851320273891036  0.2680563809077193
  0.7499390630504125  0.9084530685337256  0.2817430606002764
 
  0.00000000E+00  0.00000000E+00  0.00000000E+00
  0.00000000E+00  0.00000000E+00  0.00000000E+00
  0.00000000E+00  0.00000000E+00  0.00000000E+00
  0.00000000E+00  0.00000000E+00  0.00000000E+00
  0.00000000E+00  0.00000000E+00  0.00000000E+00
  0.00000000E+00  0.00000000E+00  0.00000000E+00
  0.00000000E+00  0.00000000E+00  0.00000000E+00
  0.00000000E+00  0.00000000E+00  0.00000000E+00
  0.00000000E+00  0.00000000E+00  0.00000000E+00
  0.00000000E+00  0.00000000E+00  0.00000000E+00
  0.00000000E+00  0.00000000E+00  0.00000000E+00
  0.00000000E+00  0.00000000E+00  0.00000000E+00
  0.00000000E+00  0.00000000E+00  0.00000000E+00
  0.00000000E+00  0.00000000E+00  0.00000000E+00
  0.00000000E+00  0.00000000E+00  0.00000000E+00
  0.00000000E+00  0.00000000E+00  0.00000000E+00
  0.00000000E+00  0.00000000E+00  0.00000000E+00
  0.00000000E+00  0.00000000E+00  0.00000000E+00
  0.00000000E+00  0.00000000E+00  0.00000000E+00
  0.00000000E+00  0.00000000E+00  0.00000000E+00
  0.00000000E+00  0.00000000E+00  0.00000000E+00
  0.00000000E+00  0.00000000E+00  0.00000000E+00
  0.00000000E+00  0.00000000E+00  0.00000000E+00
  0.00000000E+00  0.00000000E+00  0.00000000E+00
  0.00000000E+00  0.00000000E+00  0.00000000E+00
  0.00000000E+00  0.00000000E+00  0.00000000E+00
  0.00000000E+00  0.00000000E+00  0.00000000E+00
  0.00000000E+00  0.00000000E+00  0.00000000E+00
  0.00000000E+00  0.00000000E+00  0.00000000E+00
  0.00000000E+00  0.00000000E+00  0.00000000E+00
  0.00000000E+00  0.00000000E+00  0.00000000E+00
  0.00000000E+00  0.00000000E+00  0.00000000E+00
  0.00000000E+00  0.00000000E+00  0.00000000E+00
  0.00000000E+00  0.00000000E+00  0.00000000E+00
  0.00000000E+00  0.00000000E+00  0.00000000E+00
  0.00000000E+00  0.00000000E+00  0.00000000E+00
  0.00000000E+00  0.00000000E+00  0.00000000E+00
  0.00000000E+00  0.00000000E+00  0.00000000E+00
  0.00000000E+00  0.00000000E+00  0.00000000E+00
  0.00000000E+00  0.00000000E+00  0.00000000E+00
  0.00000000E+00  0.00000000E+00  0.00000000E+00
  0.00000000E+00  0.00000000E+00  0.00000000E+00
  0.00000000E+00  0.00000000E+00  0.00000000E+00
  0.00000000E+00  0.00000000E+00  0.00000000E+00
  0.00000000E+00  0.00000000E+00  0.00000000E+00
  0.00000000E+00  0.00000000E+00  0.00000000E+00
  0.00000000E+00  0.00000000E+00  0.00000000E+00
  0.00000000E+00  0.00000000E+00  0.00000000E+00
  0.00000000E+00  0.00000000E+00  0.00000000E+00
  0.00000000E+00  0.00000000E+00  0.00000000E+00
  0.00000000E+00  0.00000000E+00  0.00000000E+00
  0.00000000E+00  0.00000000E+00  0.00000000E+00
  0.00000000E+00  0.00000000E+00  0.00000000E+00
  0.00000000E+00  0.00000000E+00  0.00000000E+00
  0.00000000E+00  0.00000000E+00  0.00000000E+00
  0.00000000E+00  0.00000000E+00  0.00000000E+00
  0.00000000E+00  0.00000000E+00  0.00000000E+00
  0.00000000E+00  0.00000000E+00  0.00000000E+00
  0.00000000E+00  0.00000000E+00  0.00000000E+00
  0.00000000E+00  0.00000000E+00  0.00000000E+00
  0.00000000E+00  0.00000000E+00  0.00000000E+00
  0.00000000E+00  0.00000000E+00  0.00000000E+00
  0.00000000E+00  0.00000000E+00  0.00000000E+00
  0.00000000E+00  0.00000000E+00  0.00000000E+00
  0.00000000E+00  0.00000000E+00  0.00000000E+00
  0.00000000E+00  0.00000000E+00  0.00000000E+00
  0.00000000E+00  0.00000000E+00  0.00000000E+00
  0.00000000E+00  0.00000000E+00  0.00000000E+00
  0.00000000E+00  0.00000000E+00  0.00000000E+00
  0.00000000E+00  0.00000000E+00  0.00000000E+00
  0.00000000E+00  0.00000000E+00  0.00000000E+00
  0.00000000E+00  0.00000000E+00  0.00000000E+00
  0.00000000E+00  0.00000000E+00  0.00000000E+00
  0.00000000E+00  0.00000000E+00  0.00000000E+00
  0.00000000E+00  0.00000000E+00  0.00000000E+00
  0.00000000E+00  0.00000000E+00  0.00000000E+00
  0.00000000E+00  0.00000000E+00  0.00000000E+00
  0.00000000E+00  0.00000000E+00  0.00000000E+00
  0.00000000E+00  0.00000000E+00  0.00000000E+00
  0.00000000E+00  0.00000000E+00  0.00000000E+00
  0.00000000E+00  0.00000000E+00  0.00000000E+00
  0.00000000E+00  0.00000000E+00  0.00000000E+00
  0.00000000E+00  0.00000000E+00  0.00000000E+00
  0.00000000E+00  0.00000000E+00  0.00000000E+00
  0.00000000E+00  0.00000000E+00  0.00000000E+00
  0.00000000E+00  0.00000000E+00  0.00000000E+00
  0.00000000E+00  0.00000000E+00  0.00000000E+00
  0.00000000E+00  0.00000000E+00  0.00000000E+00
  0.00000000E+00  0.00000000E+00  0.00000000E+00
  0.00000000E+00  0.00000000E+00  0.00000000E+00
  0.00000000E+00  0.00000000E+00  0.00000000E+00
  0.00000000E+00  0.00000000E+00  0.00000000E+00
  0.00000000E+00  0.00000000E+00  0.00000000E+00
  0.00000000E+00  0.00000000E+00  0.00000000E+00
  0.00000000E+00  0.00000000E+00  0.00000000E+00
  0.00000000E+00  0.00000000E+00  0.00000000E+00
