cubic_FA0000MA0000Cs1000kicked          
   1.00000000000000     
    12.5938397071836832   -0.0053201541715725    0.2135506276858265
    -0.0038492782301761   12.6008283342806262   -0.0031235380243321
     0.2196765485684462   -0.0072049182127479   12.6221490236703406
   Cs   I    Pb
     8    24     8
Direct
  0.2279577229240272  0.2518507076276569  0.2083858488962745
  0.2063409171928605  0.2509161115883182  0.7281604885492641
  0.2777377085688620  0.7519777720898596  0.2931316454521920
  0.2930735875994811  0.7521184542421251  0.7716292635904307
  0.7071787275571304  0.2518832246725485  0.2293630257694727
  0.7260666057394194  0.2506634252821449  0.7072861624469359
  0.7977969380541958  0.7506642923093240  0.2722354199031130
  0.7716552200476886  0.7522977870700426  0.7935302752876829
  0.0486389916919581  0.9604456545367684  0.2492309478450307
  0.9531032038813876  0.0427062695101624  0.7524505494141236
  0.0470520569886079  0.5438691774961312  0.2501077541253753
  0.9523779280539534  0.4603287991008613  0.7528219289007712
  0.4530002155363256  0.0415489416836268  0.2518315380016976
  0.5482550588845719 -0.0347338402116459  0.7489627381391675
  0.4550643153133562  0.4633118468075896  0.2523720283311332
  0.5458075170140958  0.5416229846566457  0.7500588862921365
  0.9653339746760529  0.2519979522404146  0.0479731387986994
  0.0467281035355767  0.2520689928559709  0.4667152833076908
  0.0348478116016864  0.7521187855462854  0.9542193340533583
  0.9525895559156454  0.7522890585691137  0.5361768038061037
  0.5485627410067576  0.2530445877480992 -0.0317162692155784
  0.4632740407138573  0.2524619175217688  0.5452654911707371
  0.4527091579911551  0.7527236432519950  0.0323251563554774
  0.5385095324549993  0.7523981016223228  0.4577264990887333
  0.2485779803274900  0.5447494056750061  0.5464958127632230
  0.2512140610710443  0.4592433111482130 -0.0454350534824288
  0.2494964985564028  0.9606423679891012  0.5470051711273616
  0.2523264646665148  0.0430458597207192 -0.0462265359422307
  0.7515400208112420  0.4587676424208064  0.4566182589718304
  0.7486105348036416  0.5443505073925198  0.0466045164632807
  0.7521717218832605  0.0433512257906961  0.4526732800175163
  0.7491591137316770  0.9610381581776913  0.0484651549193350
  0.5012792426834746  0.0032147327614995  0.0004825274736602
  0.5008736031606895  0.0025964600430338  0.5002554019733816
  0.4995426829488932  0.5027518362310810  0.0012074866933774
  0.5002625870825231  0.5028527338114090  0.5013925985253574
  0.0006086088106213  0.0024399801082854  0.0011104561906960
  0.0006351679231724  0.0018871822577274  0.5008217676299551
  0.0006679648640960  0.5021072428214994  0.0017188831367978
 -0.0000069809258338  0.5025888413996571  0.5018896446844282
 
  0.00000000E+00  0.00000000E+00  0.00000000E+00
  0.00000000E+00  0.00000000E+00  0.00000000E+00
  0.00000000E+00  0.00000000E+00  0.00000000E+00
  0.00000000E+00  0.00000000E+00  0.00000000E+00
  0.00000000E+00  0.00000000E+00  0.00000000E+00
  0.00000000E+00  0.00000000E+00  0.00000000E+00
  0.00000000E+00  0.00000000E+00  0.00000000E+00
  0.00000000E+00  0.00000000E+00  0.00000000E+00
  0.00000000E+00  0.00000000E+00  0.00000000E+00
  0.00000000E+00  0.00000000E+00  0.00000000E+00
  0.00000000E+00  0.00000000E+00  0.00000000E+00
  0.00000000E+00  0.00000000E+00  0.00000000E+00
  0.00000000E+00  0.00000000E+00  0.00000000E+00
  0.00000000E+00  0.00000000E+00  0.00000000E+00
  0.00000000E+00  0.00000000E+00  0.00000000E+00
  0.00000000E+00  0.00000000E+00  0.00000000E+00
  0.00000000E+00  0.00000000E+00  0.00000000E+00
  0.00000000E+00  0.00000000E+00  0.00000000E+00
  0.00000000E+00  0.00000000E+00  0.00000000E+00
  0.00000000E+00  0.00000000E+00  0.00000000E+00
  0.00000000E+00  0.00000000E+00  0.00000000E+00
  0.00000000E+00  0.00000000E+00  0.00000000E+00
  0.00000000E+00  0.00000000E+00  0.00000000E+00
  0.00000000E+00  0.00000000E+00  0.00000000E+00
  0.00000000E+00  0.00000000E+00  0.00000000E+00
  0.00000000E+00  0.00000000E+00  0.00000000E+00
  0.00000000E+00  0.00000000E+00  0.00000000E+00
  0.00000000E+00  0.00000000E+00  0.00000000E+00
  0.00000000E+00  0.00000000E+00  0.00000000E+00
  0.00000000E+00  0.00000000E+00  0.00000000E+00
  0.00000000E+00  0.00000000E+00  0.00000000E+00
  0.00000000E+00  0.00000000E+00  0.00000000E+00
  0.00000000E+00  0.00000000E+00  0.00000000E+00
  0.00000000E+00  0.00000000E+00  0.00000000E+00
  0.00000000E+00  0.00000000E+00  0.00000000E+00
  0.00000000E+00  0.00000000E+00  0.00000000E+00
  0.00000000E+00  0.00000000E+00  0.00000000E+00
  0.00000000E+00  0.00000000E+00  0.00000000E+00
  0.00000000E+00  0.00000000E+00  0.00000000E+00
  0.00000000E+00  0.00000000E+00  0.00000000E+00
