hexa_FA0500MA0125Cs0375                 
   1.00000000000000     
    18.5183681286831501    0.0264703294921274    0.0089321137946488
    -9.2404728410021821   14.7110648354429010   -0.0020705270473536
     0.0037097361138787    0.0012639636137723    7.7753591850454340
   Pb   I    N    C    H    Cs
     8    24     9     5    26     3
Direct
  0.5030204356182276  0.5060404813134443  0.9355157545303320
  0.4978181393320868 -0.0025435242591150  0.9369188379647249
  0.0023822035349950  0.5042294854062475  0.9362810609114186
  0.9955052764371536  0.9940554086874339  0.9377354189786072
 -0.0050140559116778 -0.0064732409407683  0.4384946881225318
  0.0024658521340761  0.5044019931674669  0.4417616677112430
  0.4982671052227868 -0.0022132789204417  0.4399477194967733
  0.5028256774038645  0.5057867118041226  0.4428796513387995
  0.4111987261681853  0.0774214034938367  0.1890133917826254
  0.4222250571860846  0.5906245310840830  0.1896767229312285
  0.9173492985840398  0.0819157846713722  0.1885357449768658
  0.9163894583064002  0.5847483031129836  0.1892998379710356
  0.4143398869805420  0.3290502046932318  0.1895135921865137
  0.4228310447334137  0.8219158221292263  0.1893876276443169
  0.9138151149358557  0.3273844309846459  0.1897847114169415
  0.8956017868024182  0.8200010866046272  0.1877966785521783
  0.1631237396798450  0.0729676041705543  0.1872267677307974
  0.1685034992535463  0.5839725118828329  0.1887775046579779
  0.6631475515652051  0.0808957177733685  0.1870134018879570
  0.6680262307242304  0.5905777331794912  0.1893041694440268
  0.0826610536316888  0.4187309312911821  0.6888218199231798
  0.0587427453528365  0.8924912654027999  0.6883076399840704
  0.5868268579712285  0.4251165004799078  0.6892085568862955
  0.5780532724010007  0.9125680838239121  0.6886483662013125
  0.1073144213433140  0.1668386180807357  0.6864116901655202
  0.0908012356233083  0.6764536451904376  0.6894516751232496
  0.5788653750946178  0.1720642189886940  0.6894952533988274
  0.5916897800061691  0.6830336139548751  0.6893738549144202
  0.3386823019884097  0.4253278662903385  0.6898952181723462
  0.3321867613695622  0.9085207556562299  0.6864465932637699
  0.8375392986080226  0.4209634743607424  0.6892089878085820
  0.8322798663126163  0.9174627135773464  0.6886102730777737
  0.2227662719300581  0.3190690614715891  0.1866913228000901
  0.2225521694387212  0.8183550544362294  0.1867057972111539
  0.7221176074280009  0.3192754151366705  0.1866468422480232
  0.0974712445928123  0.3196027628547020  0.1866246664912335
  0.0965827058525974  0.8187849132062278  0.1867840979501048
  0.5964827719855365  0.3191752542239497  0.1865997402514840
  0.7785501389746199  0.1810156795025211  0.6867365608620115
  0.9039494302809864  0.1797515579681398  0.6867561570081203
  0.2788926389712401  0.0966153372606453  0.6877176525563944
  0.1807613290629284  0.3606097612036440  0.1865342324120067
  0.1799773385363373  0.8593160695747702  0.1867737947328197
  0.6798177064184951  0.3604743791042080  0.1865184180373287
  0.8205063709406495  0.1394158868404509  0.6866601007940772
  0.3613771072278543  0.1865337458098512  0.6881006781278768
  0.2180581029762932  0.4349931703190880  0.1863304356887935
  0.2171303274791638  0.9336948385910826  0.1868434350095303
  0.7166937630637108  0.4348659531761645  0.1863509438013524
  0.7830999509395919  0.0650009496220010  0.6865186859504461
  0.1937788639002974  0.2497482053995123  0.1868858369204423
  0.1944969019348252  0.7489084681278324  0.1867996910663374
  0.6933022511925215  0.2497176928571069  0.1867504263416378
  0.2880779031358544  0.3555603640069271  0.1867646686945002
  0.2877174921420521  0.8559913227410387  0.1869935685108470
  0.7873595199161008  0.3558274284165459  0.1867447497580408
  0.0687621133952308  0.3563532665125860  0.1867023471815838
  0.0695248622416944  0.8569579318266480  0.1868317290559628
  0.5676884401384855  0.3557765801187127  0.1866124322112262
  0.0568599038511712  0.2500940822105422  0.1869859627760406
  0.0551779081781329  0.7493604683697542  0.1868757183573726
  0.5562174622328158  0.2497598228727912  0.1868605142513608
  0.8073134656167814  0.2505336540791497  0.6869629003614914
  0.7132637929900356  0.1444527833395156  0.6869892360571471
  0.9307888906556042  0.1414512353111008  0.6865528871605654
  0.9452029942388006  0.2492299666593729  0.6869217293802462
  0.2272256169461460  0.1031979009090934  0.6633636175713076
  0.2676912209097290  0.0640304356849078  0.8042671979718922
  0.2791744196615147  0.0531127936194696  0.5970703489784787
  0.3598276270775383  0.2280870537662187  0.7923643499004387
  0.4137621319575064  0.1752352181146347  0.7079320345923632
  0.3689599512220073  0.2199765821276292  0.5639636731028749
  0.6640691337128577  0.8351400592149854  0.1855677219125612
  0.3364326816614889  0.6572232746675212  0.6850979922699417
  0.8182957228119107  0.6547636212815490  0.6856154353920233
 
  0.00000000E+00  0.00000000E+00  0.00000000E+00
  0.00000000E+00  0.00000000E+00  0.00000000E+00
  0.00000000E+00  0.00000000E+00  0.00000000E+00
  0.00000000E+00  0.00000000E+00  0.00000000E+00
  0.00000000E+00  0.00000000E+00  0.00000000E+00
  0.00000000E+00  0.00000000E+00  0.00000000E+00
  0.00000000E+00  0.00000000E+00  0.00000000E+00
  0.00000000E+00  0.00000000E+00  0.00000000E+00
  0.00000000E+00  0.00000000E+00  0.00000000E+00
  0.00000000E+00  0.00000000E+00  0.00000000E+00
  0.00000000E+00  0.00000000E+00  0.00000000E+00
  0.00000000E+00  0.00000000E+00  0.00000000E+00
  0.00000000E+00  0.00000000E+00  0.00000000E+00
  0.00000000E+00  0.00000000E+00  0.00000000E+00
  0.00000000E+00  0.00000000E+00  0.00000000E+00
  0.00000000E+00  0.00000000E+00  0.00000000E+00
  0.00000000E+00  0.00000000E+00  0.00000000E+00
  0.00000000E+00  0.00000000E+00  0.00000000E+00
  0.00000000E+00  0.00000000E+00  0.00000000E+00
  0.00000000E+00  0.00000000E+00  0.00000000E+00
  0.00000000E+00  0.00000000E+00  0.00000000E+00
  0.00000000E+00  0.00000000E+00  0.00000000E+00
  0.00000000E+00  0.00000000E+00  0.00000000E+00
  0.00000000E+00  0.00000000E+00  0.00000000E+00
  0.00000000E+00  0.00000000E+00  0.00000000E+00
  0.00000000E+00  0.00000000E+00  0.00000000E+00
  0.00000000E+00  0.00000000E+00  0.00000000E+00
  0.00000000E+00  0.00000000E+00  0.00000000E+00
  0.00000000E+00  0.00000000E+00  0.00000000E+00
  0.00000000E+00  0.00000000E+00  0.00000000E+00
  0.00000000E+00  0.00000000E+00  0.00000000E+00
  0.00000000E+00  0.00000000E+00  0.00000000E+00
  0.00000000E+00  0.00000000E+00  0.00000000E+00
  0.00000000E+00  0.00000000E+00  0.00000000E+00
  0.00000000E+00  0.00000000E+00  0.00000000E+00
  0.00000000E+00  0.00000000E+00  0.00000000E+00
  0.00000000E+00  0.00000000E+00  0.00000000E+00
  0.00000000E+00  0.00000000E+00  0.00000000E+00
  0.00000000E+00  0.00000000E+00  0.00000000E+00
  0.00000000E+00  0.00000000E+00  0.00000000E+00
  0.00000000E+00  0.00000000E+00  0.00000000E+00
  0.00000000E+00  0.00000000E+00  0.00000000E+00
  0.00000000E+00  0.00000000E+00  0.00000000E+00
  0.00000000E+00  0.00000000E+00  0.00000000E+00
  0.00000000E+00  0.00000000E+00  0.00000000E+00
  0.00000000E+00  0.00000000E+00  0.00000000E+00
  0.00000000E+00  0.00000000E+00  0.00000000E+00
  0.00000000E+00  0.00000000E+00  0.00000000E+00
  0.00000000E+00  0.00000000E+00  0.00000000E+00
  0.00000000E+00  0.00000000E+00  0.00000000E+00
  0.00000000E+00  0.00000000E+00  0.00000000E+00
  0.00000000E+00  0.00000000E+00  0.00000000E+00
  0.00000000E+00  0.00000000E+00  0.00000000E+00
  0.00000000E+00  0.00000000E+00  0.00000000E+00
  0.00000000E+00  0.00000000E+00  0.00000000E+00
  0.00000000E+00  0.00000000E+00  0.00000000E+00
  0.00000000E+00  0.00000000E+00  0.00000000E+00
  0.00000000E+00  0.00000000E+00  0.00000000E+00
  0.00000000E+00  0.00000000E+00  0.00000000E+00
  0.00000000E+00  0.00000000E+00  0.00000000E+00
  0.00000000E+00  0.00000000E+00  0.00000000E+00
  0.00000000E+00  0.00000000E+00  0.00000000E+00
  0.00000000E+00  0.00000000E+00  0.00000000E+00
  0.00000000E+00  0.00000000E+00  0.00000000E+00
  0.00000000E+00  0.00000000E+00  0.00000000E+00
  0.00000000E+00  0.00000000E+00  0.00000000E+00
  0.00000000E+00  0.00000000E+00  0.00000000E+00
  0.00000000E+00  0.00000000E+00  0.00000000E+00
  0.00000000E+00  0.00000000E+00  0.00000000E+00
  0.00000000E+00  0.00000000E+00  0.00000000E+00
  0.00000000E+00  0.00000000E+00  0.00000000E+00
  0.00000000E+00  0.00000000E+00  0.00000000E+00
  0.00000000E+00  0.00000000E+00  0.00000000E+00
  0.00000000E+00  0.00000000E+00  0.00000000E+00
  0.00000000E+00  0.00000000E+00  0.00000000E+00
