ortho_FA0125MA0375Cs0500                
   1.00000000000000     
    11.0142877945383368    0.0032735456855215    0.0921486183797950
     0.0029395248160235    9.6209040619489219   -0.0706565397393160
     0.1555304305496698   -0.1275319310290713   18.6421616982391072
   Pb   I    Cs   C    N    H 
     8    24     4     4     5    23
Direct
  0.1697024473848489  0.1175005825700545  0.4440518025998844
  0.1746467885320151  0.6183585384581668  0.4408668943611760
  0.8446199199253569  0.3749451914655546  0.5615617482548485
  0.8425304320842353  0.8773448576047124  0.5582928984099090
  0.3350529193141246  0.3682219259753364  0.9375895348918292
  0.3295871360960690  0.8665035418257403  0.9362072666626627
  0.6508324074419516  0.1177854559680772  0.0585804356483572
  0.6505870113314868  0.6006208502968362  0.0576741723713547
  0.1593236592025700  0.1166784814974744 -0.0045925662145783
  0.1677970096222911  0.6215439416617294  0.0123581141571198
  0.8420207515800938  0.3535660603292139  0.0107858522959566
  0.8117958764829561  0.8602239893126741  0.9931168163052837
  0.3370616107911439  0.3709958370183011  0.5077075132913615
  0.3360797574461525  0.8706081939806932  0.5075789175646103
  0.6675914330060435  0.1319358710153883  0.5109840798989138
  0.6709173510893149  0.6179525418913369  0.5079777327120347
  0.3068156799412682  0.1200922378030952  0.2912503444415988
  0.3169444087130467  0.5968012255274429  0.2950264541514190
  0.7084823136739420  0.3814004222587346  0.7103556660127319
  0.7111152383858842  0.8913205916791259  0.7115147643690484
  0.2344746513628469  0.3852300903840980  0.7836913373398786
  0.2109105323753903  0.8629185075391947  0.7870311262068934
  0.7683176548996704  0.1124595470614432  0.2114287095804008
  0.7617799777375223  0.6009765068788908  0.2102270889840352
  0.0369292554529500  0.1215477711368101  0.6021581439770054
  0.0353311905288501  0.6325929228280398  0.6030724901268464
  0.9819060569394064  0.3669647125636706  0.3940869417374760
  0.9839139058798317  0.8686247265142855  0.3958643318643724
  0.4579816772994280  0.3626051574122925  0.1047071553986063
  0.4719668020664036  0.8602480190229047  0.0985827768428974
  0.5259266038319299  0.1176011807935434  0.8925953248444922
  0.5257577285578238  0.6118256003397544  0.8930061565360066
  0.4214275071608921  0.1221575237026005  0.6750142867472194
  0.4351282744015708  0.6305366255704080  0.6731828308633990
  0.5855128441974402  0.3632863814501937  0.3431906483052068
  0.0733700818266249  0.3677865876789678  0.1787141139705821
  0.0723118158923410  0.8918476294666577  0.1883497951634884
  0.9398040277796933  0.6026938460701331  0.8544422105846673
  0.6062468416725166  0.8746511341675107  0.3554773754014293
  0.9528317776381982  0.1543496393283605  0.8012704692577528
  0.1840528828468870  0.8480430026807331  0.1785857002861762
  0.9793586158084188  0.8538839410347754  0.1496604682399078
  0.9094359564071834  0.6372819709609908  0.7794781247487498
  0.5496560284843801  0.8723992033433033  0.2837851293795819
  0.8756904403969834  0.1100748192716333  0.8630148131228078
  0.0550360142436872  0.9648037180664234  0.2328005937146735
  0.2501046825708954  0.8878449552166287  0.2109392419780538
  0.2089051874677482  0.7815042967171724  0.1373945673090435
  0.9878382583912810  0.7907107396600005  0.1052780937818405
  0.8960106775941467  0.8972560533078907  0.1609986901509431
  0.8502163079775772  0.7217761065963357  0.7754623217996270
  0.8645583756468576  0.5546571607821728  0.7539268438296468
  0.9862437387104130  0.6605629132129522  0.7490971633910365
  0.8578572158628774  0.5645821167700140  0.8818862674314101
  0.0108946371119730  0.5230008556534541  0.8531321605188398
  0.9734703746511976  0.6957399177341846  0.8819289518406439
  0.4747007383087954  0.9396060225916644  0.2828908963001256
  0.5184474742135979  0.7740898591007226  0.2699945135619862
  0.6112609904778702  0.9051778060693447  0.2446728919840164
  0.5390426580559133  0.8407345926630503  0.3956042618684419
  0.6854656579635013  0.8057880389365272  0.3542028513308318
  0.6351143661101400  0.9809867779729624  0.3680416973694262
  0.7848529330691224  0.1016222172040263  0.8495780918929765
  0.8800642523093609  0.1805370925081994  0.9062158626893576
  0.9008578383456729  0.0144936270598223  0.8831890376082282
  0.9281252850854861  0.2610465410157121  0.7881406791201202
  0.0484484176261469  0.1482387884775991  0.8158679154168991
  0.9344695332247812  0.0861494169172949  0.7552738399816309
 
  0.00000000E+00  0.00000000E+00  0.00000000E+00
  0.00000000E+00  0.00000000E+00  0.00000000E+00
  0.00000000E+00  0.00000000E+00  0.00000000E+00
  0.00000000E+00  0.00000000E+00  0.00000000E+00
  0.00000000E+00  0.00000000E+00  0.00000000E+00
  0.00000000E+00  0.00000000E+00  0.00000000E+00
  0.00000000E+00  0.00000000E+00  0.00000000E+00
  0.00000000E+00  0.00000000E+00  0.00000000E+00
  0.00000000E+00  0.00000000E+00  0.00000000E+00
  0.00000000E+00  0.00000000E+00  0.00000000E+00
  0.00000000E+00  0.00000000E+00  0.00000000E+00
  0.00000000E+00  0.00000000E+00  0.00000000E+00
  0.00000000E+00  0.00000000E+00  0.00000000E+00
  0.00000000E+00  0.00000000E+00  0.00000000E+00
  0.00000000E+00  0.00000000E+00  0.00000000E+00
  0.00000000E+00  0.00000000E+00  0.00000000E+00
  0.00000000E+00  0.00000000E+00  0.00000000E+00
  0.00000000E+00  0.00000000E+00  0.00000000E+00
  0.00000000E+00  0.00000000E+00  0.00000000E+00
  0.00000000E+00  0.00000000E+00  0.00000000E+00
  0.00000000E+00  0.00000000E+00  0.00000000E+00
  0.00000000E+00  0.00000000E+00  0.00000000E+00
  0.00000000E+00  0.00000000E+00  0.00000000E+00
  0.00000000E+00  0.00000000E+00  0.00000000E+00
  0.00000000E+00  0.00000000E+00  0.00000000E+00
  0.00000000E+00  0.00000000E+00  0.00000000E+00
  0.00000000E+00  0.00000000E+00  0.00000000E+00
  0.00000000E+00  0.00000000E+00  0.00000000E+00
  0.00000000E+00  0.00000000E+00  0.00000000E+00
  0.00000000E+00  0.00000000E+00  0.00000000E+00
  0.00000000E+00  0.00000000E+00  0.00000000E+00
  0.00000000E+00  0.00000000E+00  0.00000000E+00
  0.00000000E+00  0.00000000E+00  0.00000000E+00
  0.00000000E+00  0.00000000E+00  0.00000000E+00
  0.00000000E+00  0.00000000E+00  0.00000000E+00
  0.00000000E+00  0.00000000E+00  0.00000000E+00
  0.00000000E+00  0.00000000E+00  0.00000000E+00
  0.00000000E+00  0.00000000E+00  0.00000000E+00
  0.00000000E+00  0.00000000E+00  0.00000000E+00
  0.00000000E+00  0.00000000E+00  0.00000000E+00
  0.00000000E+00  0.00000000E+00  0.00000000E+00
  0.00000000E+00  0.00000000E+00  0.00000000E+00
  0.00000000E+00  0.00000000E+00  0.00000000E+00
  0.00000000E+00  0.00000000E+00  0.00000000E+00
  0.00000000E+00  0.00000000E+00  0.00000000E+00
  0.00000000E+00  0.00000000E+00  0.00000000E+00
  0.00000000E+00  0.00000000E+00  0.00000000E+00
  0.00000000E+00  0.00000000E+00  0.00000000E+00
  0.00000000E+00  0.00000000E+00  0.00000000E+00
  0.00000000E+00  0.00000000E+00  0.00000000E+00
  0.00000000E+00  0.00000000E+00  0.00000000E+00
  0.00000000E+00  0.00000000E+00  0.00000000E+00
  0.00000000E+00  0.00000000E+00  0.00000000E+00
  0.00000000E+00  0.00000000E+00  0.00000000E+00
  0.00000000E+00  0.00000000E+00  0.00000000E+00
  0.00000000E+00  0.00000000E+00  0.00000000E+00
  0.00000000E+00  0.00000000E+00  0.00000000E+00
  0.00000000E+00  0.00000000E+00  0.00000000E+00
  0.00000000E+00  0.00000000E+00  0.00000000E+00
  0.00000000E+00  0.00000000E+00  0.00000000E+00
  0.00000000E+00  0.00000000E+00  0.00000000E+00
  0.00000000E+00  0.00000000E+00  0.00000000E+00
  0.00000000E+00  0.00000000E+00  0.00000000E+00
  0.00000000E+00  0.00000000E+00  0.00000000E+00
  0.00000000E+00  0.00000000E+00  0.00000000E+00
  0.00000000E+00  0.00000000E+00  0.00000000E+00
  0.00000000E+00  0.00000000E+00  0.00000000E+00
  0.00000000E+00  0.00000000E+00  0.00000000E+00
