hexa_FA0000MA0125Cs0875                 
   1.00000000000000     
    17.5289620134605997    0.0325951168817653   -0.0606974793424675
    -8.7524704220566765   14.9922887017551396    0.1265756776350776
    -0.0269413144208919    0.0505221970847311    7.8391117276230409
   Pb   I    N    C    H    Cs
     8    24     1     1     6     7
Direct
  0.5000130008779343  0.5015165032272189  0.9417411644318510
  0.5026106412792286  0.0008313211544981  0.9385714556812320
  0.0059400385627004  0.5032855655803762  0.9414750666770049
 -0.0000479924203541  0.0001596994942633  0.9392227883643681
 -0.0000566620814293  0.0002265820113053  0.4394391220185924
  0.0051668830273100  0.5028436035049513  0.4391523266288768
  0.5028909020150639  0.0018093805578645  0.4391362864672870
  0.5005849137137319  0.5018104447399057  0.4435595005284577
  0.4240252525887710  0.0954063242323251  0.1833481127410191
  0.4177118286169038  0.5877638806299548  0.1946504891243979
  0.9155379227957017  0.0865662250087175  0.1860613225519096
  0.9383115212847388  0.6071170783244102  0.1866314930456431
  0.4096991629547022  0.3287307031629087  0.1998381814562939
  0.4130794847126441  0.8291631376002967  0.1943342405331484
  0.9259440920399596  0.3307765412487293  0.1938641480379558
  0.9100056970737451  0.8289218908457670  0.1933639831265991
  0.1714131671179787  0.0840418944613465  0.1894168834923534
  0.1775873486748462  0.5851828610765122  0.1921556046815011
  0.6727820631606297  0.0830465832594967  0.1889434847707634
  0.6711741799094368  0.5830805440718857  0.1925356454248685
  0.0889870963347420  0.4159059125416075  0.6934354847176925
  0.0847295085841435  0.9132025571044308  0.6929840612243690
  0.5856515678246179  0.4120194991834484  0.7063906849873187
  0.5858137816941349  0.9139355545693378  0.6912541251283436
  0.0867677843491867  0.1724615525556045  0.6860803464463456
  0.0929173078869427  0.6743607831665526  0.6864416489050189
  0.5881610731712599  0.1721851336037340  0.6875189812476195
  0.5869763045965876  0.6724391899282144  0.6902254483423607
  0.3300061446835852  0.4151085804473683  0.6923260995746737
  0.3308368262038410  0.9167663893468472  0.6889672304829478
  0.8356403827215059  0.4186286523921190  0.6935221266870399
  0.8293173016585170  0.9152094521946736  0.6897401838635377
  0.6211115542530239  0.3338106134478115  0.1572898379799716
  0.7160751446425556  0.3690993091211825  0.2029938105290764
  0.6149622329790208  0.3584950642324784  0.0391595437956093
  0.5890795520804500  0.3523715779694180  0.2442128575143269
  0.5849829801283243  0.2645279154159705  0.1520590883193245
  0.7480731650173914  0.4416221350882874  0.2148674335460737
  0.7195534797552797  0.3388243689298178  0.3242351080867646
  0.7475395107496227  0.3522691748888556  0.1013088265359468
  0.8293137055474518  0.1611065554362822  0.6855688285120867
  0.3245016252784102  0.6584440068801366  0.6828391869519972
  0.1719211771040457  0.8403671880999296  0.1857036657628194
  0.1663328569285828  0.3416826576104541  0.1865547436104990
  0.3248808327703613  0.1541969219809551  0.6846682299896281
  0.8330054795170636  0.6568671993207745  0.6861433576868090
  0.6738541770749634  0.8454169874802294  0.1861886068367667
 
  0.00000000E+00  0.00000000E+00  0.00000000E+00
  0.00000000E+00  0.00000000E+00  0.00000000E+00
  0.00000000E+00  0.00000000E+00  0.00000000E+00
  0.00000000E+00  0.00000000E+00  0.00000000E+00
  0.00000000E+00  0.00000000E+00  0.00000000E+00
  0.00000000E+00  0.00000000E+00  0.00000000E+00
  0.00000000E+00  0.00000000E+00  0.00000000E+00
  0.00000000E+00  0.00000000E+00  0.00000000E+00
  0.00000000E+00  0.00000000E+00  0.00000000E+00
  0.00000000E+00  0.00000000E+00  0.00000000E+00
  0.00000000E+00  0.00000000E+00  0.00000000E+00
  0.00000000E+00  0.00000000E+00  0.00000000E+00
  0.00000000E+00  0.00000000E+00  0.00000000E+00
  0.00000000E+00  0.00000000E+00  0.00000000E+00
  0.00000000E+00  0.00000000E+00  0.00000000E+00
  0.00000000E+00  0.00000000E+00  0.00000000E+00
  0.00000000E+00  0.00000000E+00  0.00000000E+00
  0.00000000E+00  0.00000000E+00  0.00000000E+00
  0.00000000E+00  0.00000000E+00  0.00000000E+00
  0.00000000E+00  0.00000000E+00  0.00000000E+00
  0.00000000E+00  0.00000000E+00  0.00000000E+00
  0.00000000E+00  0.00000000E+00  0.00000000E+00
  0.00000000E+00  0.00000000E+00  0.00000000E+00
  0.00000000E+00  0.00000000E+00  0.00000000E+00
  0.00000000E+00  0.00000000E+00  0.00000000E+00
  0.00000000E+00  0.00000000E+00  0.00000000E+00
  0.00000000E+00  0.00000000E+00  0.00000000E+00
  0.00000000E+00  0.00000000E+00  0.00000000E+00
  0.00000000E+00  0.00000000E+00  0.00000000E+00
  0.00000000E+00  0.00000000E+00  0.00000000E+00
  0.00000000E+00  0.00000000E+00  0.00000000E+00
  0.00000000E+00  0.00000000E+00  0.00000000E+00
  0.00000000E+00  0.00000000E+00  0.00000000E+00
  0.00000000E+00  0.00000000E+00  0.00000000E+00
  0.00000000E+00  0.00000000E+00  0.00000000E+00
  0.00000000E+00  0.00000000E+00  0.00000000E+00
  0.00000000E+00  0.00000000E+00  0.00000000E+00
  0.00000000E+00  0.00000000E+00  0.00000000E+00
  0.00000000E+00  0.00000000E+00  0.00000000E+00
  0.00000000E+00  0.00000000E+00  0.00000000E+00
  0.00000000E+00  0.00000000E+00  0.00000000E+00
  0.00000000E+00  0.00000000E+00  0.00000000E+00
  0.00000000E+00  0.00000000E+00  0.00000000E+00
  0.00000000E+00  0.00000000E+00  0.00000000E+00
  0.00000000E+00  0.00000000E+00  0.00000000E+00
  0.00000000E+00  0.00000000E+00  0.00000000E+00
  0.00000000E+00  0.00000000E+00  0.00000000E+00
