ortho_FA0125MA0750Cs0125                
   1.00000000000000     
    11.3200847141050183    0.0669128411192600    0.0085083090562082
     0.0749935587642686    9.5099662541097167   -0.0896409309046536
     0.0172809662794385   -0.1648842625247721   18.8104986100412788
   Pb   I    Cs   C    N    H 
     8    24     1     7     8    41
Direct
  0.1684857914091938  0.1145091648210830  0.4390282782828335
  0.1586582579427153  0.6187690939891094  0.4470180895495886
  0.8516117468057791  0.3784431977452581  0.5635196992027174
  0.8505746787963905  0.8706212902656106  0.5604582688228453
  0.3263869069814727  0.3700857311270119  0.9417934553768033
  0.3240276478915862  0.8717603983616253  0.9414010574251359
  0.6499162083385182  0.1232834955110321  0.0510824541929104
  0.6433217348907494  0.6280271648660368  0.0473714273052232
  0.1582061576089643  0.1301480090042836  0.0070801221974358
  0.1562792178311882  0.6268946164436114  0.9991269919703045
  0.8133458349594919  0.3789244408664709  0.9934649059247056
  0.8176711539070572  0.8637026336557702  0.9878284038715461
  0.3264780184265254  0.3773073780001321  0.5202190773786333
  0.3382125641092844  0.8630211220639546  0.4958830109792947
  0.6758133004038224  0.1330422546338494  0.5110756110780905
  0.6813874563555922  0.6215326607277059  0.5075794712404808
  0.3158415528424470  0.1086568374906214  0.2962373072721933
  0.3075515417496640  0.5977634623794215  0.3041080177642355
  0.7413480760027521  0.3754638860673783  0.7118469256057758
  0.7476945522711499  0.8647944964869203  0.7121043050804016
  0.1995708929416946  0.3533917604689622  0.7944220490697597
  0.2011423304981274  0.8606471030883894  0.7889919045616481
  0.7681663180168220  0.1192781113707168  0.2001971754712280
  0.7613011126676043  0.6426054514165473  0.1997478487714890
  0.0441091716430409  0.1171779235905744  0.5987657764788171
  0.0385888433469792  0.6299007296357824  0.6083494839697040
  0.9860298303234371  0.3676593173360959  0.3945003703797697
  0.9868707509295761  0.8721974900184758  0.3928649767058551
  0.4731927386326676  0.3770573352698791  0.1002706136147935
  0.4601869013702996  0.8825925110997738  0.0977458164888356
  0.5097669271919151  0.1176935674344501  0.8950863730311402
  0.5053123136144276  0.6195988977105366  0.8868285849265984
  0.9351022108504382  0.6118872356925599  0.8324926312468914
  0.0793074138061320  0.4042858283948904  0.1895711290102760
  0.4531012341167936  0.1077110953187369  0.7060438589117045
  0.6146539420592283  0.8948772132358890  0.3527040579841644
  0.9161758210889945  0.1539279414712121  0.8504490751318760
  0.4652811147630354  0.6647178869488254  0.6703253782380623
  0.1118983368879158  0.8681728522087518  0.1760158262738462
  0.6358441603684029  0.3848309282382350  0.3357945699043777
  0.1837004780898373  0.3562864467019078  0.1697841486464649
  0.9810278469097633  0.3859549057650563  0.1539635356130180
  0.4274302040229388  0.1011403856525855  0.6284875161151331
  0.5398306091393407  0.8453881170428108  0.2926997422794220
  0.9557427845906360  0.0999356543095698  0.7797705025490324
  0.3611724388364194  0.5879433414230864  0.6973472109458967
  0.9890033819187861  0.8752328601679310  0.1485679400212562
  0.5182828113194583  0.3508084974961114  0.3655717454759266
  0.0742954666350376  0.4632011631282104  0.2400075373316876
  0.2551871754945634  0.3774199045414640  0.2010875633405828
  0.1963816879277892  0.2970792250063501  0.1240647263125888
  0.9773342262766642  0.3366450287412361  0.1052448625146124
  0.9037078365404759  0.4301394246655741  0.1728000745329461
  0.3740864680022082  0.1844933966862992  0.6120680011006587
  0.3851250243166451  0.0097991824426957  0.6120379813911032
  0.5048340663283472  0.1063944922430331  0.5980350154204611
  0.3701363917273887  0.1019255644161756  0.7357862180696848
  0.5126043845056880  0.0200371129442179  0.7190661641122730
  0.4981997204987562  0.2064921207858882  0.7181382738967145
  0.4852704253683725  0.9267168419197371  0.2749306890007452
  0.4822617456827888  0.7660171947234982  0.3073811914076456
  0.5917371791151231  0.8061804154207485  0.2509244944209262
  0.5571674860217547  0.9348488915578788  0.3956317190803715
  0.6687131928577709  0.8068242336380322  0.3717972598893165
  0.6720848570078406  0.9778955785264133  0.3333247939166332
  0.8920589850670799  0.0339470764648580  0.7566832603836953
  0.0346934719124867  0.0419655150214661  0.7829315370590595
  0.9694754949743475  0.1805392354436255  0.7447186231336496
  0.9008924037306040  0.0649290885073790  0.8853721217582383
  0.9855173787478160  0.2202891405539796  0.8730111336840898
  0.8339781417106527  0.2142765185290732  0.8436508352402855
  0.2887457029314289  0.6553809771542078  0.7056647957756023
  0.3767297208289316  0.5433466022748950  0.7464307485947385
  0.3358729075354110  0.5081525113307648  0.6625226461369846
  0.4765522940529638  0.7595341521580665  0.7033744800967136
  0.5443176191165290  0.5973861765687964  0.6741657489646627
  0.4492356375197279  0.6919315850232978  0.6147514547660733
  0.9846426267851166  0.8723627115355646  0.0933735868457108
  0.9422545628977548  0.9660832917989052  0.1655126216634918
  0.9368860728463750  0.7923735778388583  0.1658586881984907
  0.1608678122698660  0.9581851498921622  0.1563789410239677
  0.1096534728203722  0.8711614189540257  0.2342749682276056
  0.1543228311488052  0.7706573007320545  0.1564061691217062
  0.4557782035557977  0.4299331540958675  0.3545861963259215
  0.5200336957707608  0.3389682169992714  0.4201779427887559
  0.4823489796982765  0.2592434184479000  0.3433399189082221
  0.6649110278111489  0.4843335279540038  0.3598359921263771
  0.6992866328527153  0.3011411615426876  0.3486712526473307
  0.6284335190120257  0.3938380051912158  0.2779889386955861
 
  0.00000000E+00  0.00000000E+00  0.00000000E+00
  0.00000000E+00  0.00000000E+00  0.00000000E+00
  0.00000000E+00  0.00000000E+00  0.00000000E+00
  0.00000000E+00  0.00000000E+00  0.00000000E+00
  0.00000000E+00  0.00000000E+00  0.00000000E+00
  0.00000000E+00  0.00000000E+00  0.00000000E+00
  0.00000000E+00  0.00000000E+00  0.00000000E+00
  0.00000000E+00  0.00000000E+00  0.00000000E+00
  0.00000000E+00  0.00000000E+00  0.00000000E+00
  0.00000000E+00  0.00000000E+00  0.00000000E+00
  0.00000000E+00  0.00000000E+00  0.00000000E+00
  0.00000000E+00  0.00000000E+00  0.00000000E+00
  0.00000000E+00  0.00000000E+00  0.00000000E+00
  0.00000000E+00  0.00000000E+00  0.00000000E+00
  0.00000000E+00  0.00000000E+00  0.00000000E+00
  0.00000000E+00  0.00000000E+00  0.00000000E+00
  0.00000000E+00  0.00000000E+00  0.00000000E+00
  0.00000000E+00  0.00000000E+00  0.00000000E+00
  0.00000000E+00  0.00000000E+00  0.00000000E+00
  0.00000000E+00  0.00000000E+00  0.00000000E+00
  0.00000000E+00  0.00000000E+00  0.00000000E+00
  0.00000000E+00  0.00000000E+00  0.00000000E+00
  0.00000000E+00  0.00000000E+00  0.00000000E+00
  0.00000000E+00  0.00000000E+00  0.00000000E+00
  0.00000000E+00  0.00000000E+00  0.00000000E+00
  0.00000000E+00  0.00000000E+00  0.00000000E+00
  0.00000000E+00  0.00000000E+00  0.00000000E+00
  0.00000000E+00  0.00000000E+00  0.00000000E+00
  0.00000000E+00  0.00000000E+00  0.00000000E+00
  0.00000000E+00  0.00000000E+00  0.00000000E+00
  0.00000000E+00  0.00000000E+00  0.00000000E+00
  0.00000000E+00  0.00000000E+00  0.00000000E+00
  0.00000000E+00  0.00000000E+00  0.00000000E+00
  0.00000000E+00  0.00000000E+00  0.00000000E+00
  0.00000000E+00  0.00000000E+00  0.00000000E+00
  0.00000000E+00  0.00000000E+00  0.00000000E+00
  0.00000000E+00  0.00000000E+00  0.00000000E+00
  0.00000000E+00  0.00000000E+00  0.00000000E+00
  0.00000000E+00  0.00000000E+00  0.00000000E+00
  0.00000000E+00  0.00000000E+00  0.00000000E+00
  0.00000000E+00  0.00000000E+00  0.00000000E+00
  0.00000000E+00  0.00000000E+00  0.00000000E+00
  0.00000000E+00  0.00000000E+00  0.00000000E+00
  0.00000000E+00  0.00000000E+00  0.00000000E+00
  0.00000000E+00  0.00000000E+00  0.00000000E+00
  0.00000000E+00  0.00000000E+00  0.00000000E+00
  0.00000000E+00  0.00000000E+00  0.00000000E+00
  0.00000000E+00  0.00000000E+00  0.00000000E+00
  0.00000000E+00  0.00000000E+00  0.00000000E+00
  0.00000000E+00  0.00000000E+00  0.00000000E+00
  0.00000000E+00  0.00000000E+00  0.00000000E+00
  0.00000000E+00  0.00000000E+00  0.00000000E+00
  0.00000000E+00  0.00000000E+00  0.00000000E+00
  0.00000000E+00  0.00000000E+00  0.00000000E+00
  0.00000000E+00  0.00000000E+00  0.00000000E+00
  0.00000000E+00  0.00000000E+00  0.00000000E+00
  0.00000000E+00  0.00000000E+00  0.00000000E+00
  0.00000000E+00  0.00000000E+00  0.00000000E+00
  0.00000000E+00  0.00000000E+00  0.00000000E+00
  0.00000000E+00  0.00000000E+00  0.00000000E+00
  0.00000000E+00  0.00000000E+00  0.00000000E+00
  0.00000000E+00  0.00000000E+00  0.00000000E+00
  0.00000000E+00  0.00000000E+00  0.00000000E+00
  0.00000000E+00  0.00000000E+00  0.00000000E+00
  0.00000000E+00  0.00000000E+00  0.00000000E+00
  0.00000000E+00  0.00000000E+00  0.00000000E+00
  0.00000000E+00  0.00000000E+00  0.00000000E+00
  0.00000000E+00  0.00000000E+00  0.00000000E+00
  0.00000000E+00  0.00000000E+00  0.00000000E+00
  0.00000000E+00  0.00000000E+00  0.00000000E+00
  0.00000000E+00  0.00000000E+00  0.00000000E+00
  0.00000000E+00  0.00000000E+00  0.00000000E+00
  0.00000000E+00  0.00000000E+00  0.00000000E+00
  0.00000000E+00  0.00000000E+00  0.00000000E+00
  0.00000000E+00  0.00000000E+00  0.00000000E+00
  0.00000000E+00  0.00000000E+00  0.00000000E+00
  0.00000000E+00  0.00000000E+00  0.00000000E+00
  0.00000000E+00  0.00000000E+00  0.00000000E+00
  0.00000000E+00  0.00000000E+00  0.00000000E+00
  0.00000000E+00  0.00000000E+00  0.00000000E+00
  0.00000000E+00  0.00000000E+00  0.00000000E+00
  0.00000000E+00  0.00000000E+00  0.00000000E+00
  0.00000000E+00  0.00000000E+00  0.00000000E+00
  0.00000000E+00  0.00000000E+00  0.00000000E+00
  0.00000000E+00  0.00000000E+00  0.00000000E+00
  0.00000000E+00  0.00000000E+00  0.00000000E+00
  0.00000000E+00  0.00000000E+00  0.00000000E+00
  0.00000000E+00  0.00000000E+00  0.00000000E+00
  0.00000000E+00  0.00000000E+00  0.00000000E+00
