hexa_FA0250MA0500Cs0250                 
   1.00000000000000     
    17.7757323160433778    0.1713062448915549    0.2622195497083125
    -8.7706280186200836   14.8538007690964609    0.2346729691359843
     0.1106732800571733    0.1900540008368056    7.7971506579711916
   Pb   I    N    C    H    Cs
     8    24     8     6    34     2
Direct
  0.4990508581543596  0.5082673751878060  0.9680722565108117
  0.5023408889694897  0.0136870534265566  0.9131181430871527
  0.0073810964662582  0.4951480256721213  0.9297593035695659
  0.0100290902021605  0.9995824134680327  0.9522220462838727
  0.0077977216774770  0.9991322097478822  0.4433434193513870
  0.0049727772596791  0.4921856036164979  0.4189278525564576
  0.5051844305872638  0.0143557644921194  0.4117840919054677
  0.4990477017018434  0.5079237032497974  0.4672289751992783
  0.4233224990798149  0.1024094546315053  0.1643932740676368
  0.4141361302091456  0.5941738862008050  0.2307597473078790
  0.9427844830609010  0.1007435176965450  0.1919441485173283
  0.9366694079164367  0.5932216621312464  0.1745229214805460
  0.4129630465534484  0.3369941298080197  0.2343146149693402
  0.4310513642158081  0.8403528701749513  0.1753322830748628
  0.9090075530374294  0.3255738095298040  0.1825969934827009
  0.9276659415688988  0.8268996664952659  0.2116914583141475
  0.1789594498393106  0.0781456253903486  0.1831757774682493
  0.1735778443899546  0.5637001771095433  0.1609585623552972
  0.6693705341172447  0.1027336202492201  0.1414354305072551
  0.6649442002089395  0.5951375251349499  0.2040376319952990
  0.0810258733698360  0.3968101488686300  0.6745419907223487
  0.0801478952353836  0.8986713570428370  0.6949912070657219
  0.5878482954241714  0.4270196115782919  0.7275908814678559
  0.5929649983424161  0.9322970127455756  0.6684205748391092
  0.1179215289664244  0.1701806089301819  0.6736655960638257
  0.1166087829907624  0.6693819925330543  0.6419726579931068
  0.5861607240439808  0.1883612518780441  0.6408176742347655
  0.5808322626662263  0.6834779764471670  0.7073618517030347
  0.3277220697590113  0.4287370064499353  0.7399935385722782
  0.3320478572205673  0.9325534659770583  0.6689147271870827
  0.8391611498108066  0.4267689278260926  0.6950104972252789
  0.8413583787109539  0.9268403540324188  0.7174064190465275
  0.7880929832784739  0.1931255697859146  0.6767315909042859
  0.7847084839627638  0.6907035751104130  0.6884655889519260
  0.9053483778396542  0.1686623495722401  0.6925176956536678
  0.9033197081089644  0.6678132755791376  0.6886852610746954
  0.6286179046855344  0.8283349655728017  0.0898417478049059
  0.1341747139493172  0.8266471262174691  0.2887242410590831
  0.2907700972922570  0.6160585380695425  0.6123384609102294
  0.2861010412458818  0.1113547541430402  0.7456258608015119
  0.8221804720246640  0.1410836049729831  0.6824629196630307
  0.8196947509938866  0.6394362635385182  0.6858857241030455
  0.6858944003486799  0.8578811145836471  0.2390460025746813
  0.1891638921048652  0.8390282350697702  0.1306073959467107
  0.3579239617081110  0.6935233967280302  0.7036942271698124
  0.3664912694506249  0.1980986487139649  0.6980441086067433
  0.7774316963142068  0.0687839900262419  0.6785328496566571
  0.7754606342482058  0.5670725961573366  0.6815242713664781
  0.8232720200310910  0.2614822260144723  0.6824326323981762
  0.8198939315272213  0.7592093048100393  0.6936707227848812
  0.7220516599337007  0.1659507627356925  0.6694905019022603
  0.7184913433160536  0.6630882984117467  0.6879157434758415
  0.9248821317630256  0.1222594084494431  0.6958994667236941
  0.9232630684918355  0.6216125205550543  0.6868318880984923
  0.9525935565625978  0.2353522436719712  0.6941306095655980
  0.9499952864121587  0.7342920334116166  0.6943962884432169
  0.5741700874673170  0.8360458472159167  0.1105646919987347
  0.6054029778591749  0.7613974541452306  0.0674899041426413
  0.6606986974833025  0.8643823556833243  0.9770450071150576
  0.6466850138887625  0.8209556394271930  0.3553281326605607
  0.7386375253114019  0.8433156358952668  0.2171164595047208
  0.7120314501521015  0.9299333057779308  0.2506746519573929
  0.0765409460131431  0.8254511072681627  0.2598716423704555
  0.1658881467370275  0.8777669188590193  0.3719879884024304
  0.1173129345791240  0.7672799676676235  0.3581284475375995
  0.2098318890099672  0.9052153345315855  0.0706758858339861
  0.2460805572945043  0.8345776997298721  0.1663653266753374
  0.1504009578090096  0.7864480612032480  0.0429144113124844
  0.2335354575577001  0.6188452357274302  0.6071427097054060
  0.2763029809241209  0.5552486184175214  0.6725287555096731
  0.3124188088743834  0.6151123810054507  0.4875287294759039
  0.3315025907170430  0.6931295452126052  0.8326677297412749
  0.4158552904158473  0.6868310892319218  0.7115691477162966
  0.3739651187132625  0.7555849278031967  0.6313006215132897
  0.2320748032036588  0.1086699494636560  0.6912202777223166
  0.2723044278436352  0.1030744958993043  0.8774207219744881
  0.2919179313103877  0.0566917713255182  0.7076409914309894
  0.3582065682526668  0.2530238692102358  0.7435689113034037
  0.4216188539949977  0.1982437418388580  0.7573933314520075
  0.3768342619198886  0.2045837576152322  0.5579983408125965
  0.1812145834505671  0.3320120801049196  0.1892700180248089
  0.6553814044553323  0.3350628979835663  0.1643513538032129
 
  0.00000000E+00  0.00000000E+00  0.00000000E+00
  0.00000000E+00  0.00000000E+00  0.00000000E+00
  0.00000000E+00  0.00000000E+00  0.00000000E+00
  0.00000000E+00  0.00000000E+00  0.00000000E+00
  0.00000000E+00  0.00000000E+00  0.00000000E+00
  0.00000000E+00  0.00000000E+00  0.00000000E+00
  0.00000000E+00  0.00000000E+00  0.00000000E+00
  0.00000000E+00  0.00000000E+00  0.00000000E+00
  0.00000000E+00  0.00000000E+00  0.00000000E+00
  0.00000000E+00  0.00000000E+00  0.00000000E+00
  0.00000000E+00  0.00000000E+00  0.00000000E+00
  0.00000000E+00  0.00000000E+00  0.00000000E+00
  0.00000000E+00  0.00000000E+00  0.00000000E+00
  0.00000000E+00  0.00000000E+00  0.00000000E+00
  0.00000000E+00  0.00000000E+00  0.00000000E+00
  0.00000000E+00  0.00000000E+00  0.00000000E+00
  0.00000000E+00  0.00000000E+00  0.00000000E+00
  0.00000000E+00  0.00000000E+00  0.00000000E+00
  0.00000000E+00  0.00000000E+00  0.00000000E+00
  0.00000000E+00  0.00000000E+00  0.00000000E+00
  0.00000000E+00  0.00000000E+00  0.00000000E+00
  0.00000000E+00  0.00000000E+00  0.00000000E+00
  0.00000000E+00  0.00000000E+00  0.00000000E+00
  0.00000000E+00  0.00000000E+00  0.00000000E+00
  0.00000000E+00  0.00000000E+00  0.00000000E+00
  0.00000000E+00  0.00000000E+00  0.00000000E+00
  0.00000000E+00  0.00000000E+00  0.00000000E+00
  0.00000000E+00  0.00000000E+00  0.00000000E+00
  0.00000000E+00  0.00000000E+00  0.00000000E+00
  0.00000000E+00  0.00000000E+00  0.00000000E+00
  0.00000000E+00  0.00000000E+00  0.00000000E+00
  0.00000000E+00  0.00000000E+00  0.00000000E+00
  0.00000000E+00  0.00000000E+00  0.00000000E+00
  0.00000000E+00  0.00000000E+00  0.00000000E+00
  0.00000000E+00  0.00000000E+00  0.00000000E+00
  0.00000000E+00  0.00000000E+00  0.00000000E+00
  0.00000000E+00  0.00000000E+00  0.00000000E+00
  0.00000000E+00  0.00000000E+00  0.00000000E+00
  0.00000000E+00  0.00000000E+00  0.00000000E+00
  0.00000000E+00  0.00000000E+00  0.00000000E+00
  0.00000000E+00  0.00000000E+00  0.00000000E+00
  0.00000000E+00  0.00000000E+00  0.00000000E+00
  0.00000000E+00  0.00000000E+00  0.00000000E+00
  0.00000000E+00  0.00000000E+00  0.00000000E+00
  0.00000000E+00  0.00000000E+00  0.00000000E+00
  0.00000000E+00  0.00000000E+00  0.00000000E+00
  0.00000000E+00  0.00000000E+00  0.00000000E+00
  0.00000000E+00  0.00000000E+00  0.00000000E+00
  0.00000000E+00  0.00000000E+00  0.00000000E+00
  0.00000000E+00  0.00000000E+00  0.00000000E+00
  0.00000000E+00  0.00000000E+00  0.00000000E+00
  0.00000000E+00  0.00000000E+00  0.00000000E+00
  0.00000000E+00  0.00000000E+00  0.00000000E+00
  0.00000000E+00  0.00000000E+00  0.00000000E+00
  0.00000000E+00  0.00000000E+00  0.00000000E+00
  0.00000000E+00  0.00000000E+00  0.00000000E+00
  0.00000000E+00  0.00000000E+00  0.00000000E+00
  0.00000000E+00  0.00000000E+00  0.00000000E+00
  0.00000000E+00  0.00000000E+00  0.00000000E+00
  0.00000000E+00  0.00000000E+00  0.00000000E+00
  0.00000000E+00  0.00000000E+00  0.00000000E+00
  0.00000000E+00  0.00000000E+00  0.00000000E+00
  0.00000000E+00  0.00000000E+00  0.00000000E+00
  0.00000000E+00  0.00000000E+00  0.00000000E+00
  0.00000000E+00  0.00000000E+00  0.00000000E+00
  0.00000000E+00  0.00000000E+00  0.00000000E+00
  0.00000000E+00  0.00000000E+00  0.00000000E+00
  0.00000000E+00  0.00000000E+00  0.00000000E+00
  0.00000000E+00  0.00000000E+00  0.00000000E+00
  0.00000000E+00  0.00000000E+00  0.00000000E+00
  0.00000000E+00  0.00000000E+00  0.00000000E+00
  0.00000000E+00  0.00000000E+00  0.00000000E+00
  0.00000000E+00  0.00000000E+00  0.00000000E+00
  0.00000000E+00  0.00000000E+00  0.00000000E+00
  0.00000000E+00  0.00000000E+00  0.00000000E+00
  0.00000000E+00  0.00000000E+00  0.00000000E+00
  0.00000000E+00  0.00000000E+00  0.00000000E+00
  0.00000000E+00  0.00000000E+00  0.00000000E+00
  0.00000000E+00  0.00000000E+00  0.00000000E+00
  0.00000000E+00  0.00000000E+00  0.00000000E+00
  0.00000000E+00  0.00000000E+00  0.00000000E+00
  0.00000000E+00  0.00000000E+00  0.00000000E+00
