cubic_FA0000MA0500Cs0500kicked          
   1.00000000000000     
    12.7269119908554540    0.0448763172655776    0.1937079970414653
     0.0447193025877794   12.5488249886427656    0.0184730586496055
     0.1942879063650103    0.0182265485275462   12.6508195233416192
   Cs   I    Pb   C    N    H 
     4    24     8     4     4    24
Direct
  0.2651549591045298  0.2566780721363731  0.2185003963507990
  0.2654654849695362  0.7565493246808975  0.2490131263726260
  0.7472413702374652  0.2485268864508741  0.2411762442479738
  0.7772903385288851  0.7466454590225144  0.2345234130814564
  0.0098817921086076  0.9486306574748649  0.2519576824379579
  0.0255081307395919  0.0355011790712747  0.7485125748802772
  0.0241931450722189  0.5537597373775485  0.2527955233640137
  0.0191311267184563  0.4638999649325384  0.7507558516618489
  0.4967282698929040  0.0516915153633158  0.2565714629974562
  0.5353893429473214  0.9668650083172062  0.7536286517926256
  0.4953632077466589  0.4556948324001227  0.2560139557182221
  0.5343054998990912  0.5317038842915304  0.7525948523844607
  0.0092191661917365  0.2488453761010048  0.0595789663162291
  0.0504849217574837  0.2505384777848670  0.4497499602513633
  0.0196091368155852  0.7485742492152364  0.9649736861087961
  0.9488331638977973  0.7504862484828342  0.5374427896745675
  0.5139336079446285  0.2525687292251858  0.9776028293143089
  0.4572879586783197  0.2541044863549039  0.5453893182332872
  0.5205874047419221  0.7524707782790431  0.0628274926674789
  0.5502912986384517  0.7538347281181462  0.4540108114728626
  0.2525619840548867  0.5516343112420482  0.5114423495102475
  0.2656700005434679  0.5075531844996614  0.0069699395060875
  0.2513866135390221  0.9474106177572732  0.5068341543364442
  0.2625566272843424 -0.0023921385232075  0.0220123257847066
  0.7534509979080853  0.4526325330954327  0.4865703067673913
  0.7644991437348843  0.4979103625818050  0.0323887938715650
  0.7510406716438172  0.0525382949471796  0.4952989435443811
  0.7621532919215924  0.0064616966766899  0.0246123173264499
  0.5124650989412199 -0.0016652054139931  0.0077034746802396
  0.4980430796809215  0.0001386492703203  0.5004863992211899
  0.5146434120004971  0.5065411983724033  0.0056924172242073
  0.5027265407927248  0.5064391935109475  0.5007343506379072
  0.0120852540249133  0.0012815148114357  0.0007399015801022
  0.9981006481756395  0.0031329186309959  0.4966156215310887
  0.0132964759941970  0.4966940929608571  0.0037914555566908
 -0.0011210788912376  0.4984652838592603  0.4965166658633125
  0.7847008957076863  0.2518682068293467 -0.2445991830975426
  0.7746169082026731  0.7516791312879878  0.8005288301197893
  0.2555267192042845  0.2363025436379204  0.8013398182884442
  0.2847148793567206  0.7671710134074030  0.7726327600426481
  0.6716290172331285  0.2272892970976708  0.7407535357800231
  0.7138130762894805  0.7459174920329964  0.7019392832688727
  0.2127358095236460  0.2576276406028123  0.6951302831716851
  0.1839056614168992  0.7347648176301957  0.7258864294568127
  0.6408152226697826  0.2669453531086129  0.6766319442053784
  0.6255334708897724  0.2476907274323241  0.8078090798385471
  0.6594693264846012  0.1464558044784158  0.7283657001494801
  0.7928404692757970  0.3376266788789927  0.7681893459240012
  0.8116907377882406  0.2072380764452250  0.8241568186136201
  0.8295701700613095  0.2274085815948168  0.6842213305327765
  0.6651556521530574  0.8125657161561034  0.6948205139461223
  0.6650530994576318  0.6790658019728791  0.7031876607738324
  0.7649948090602879  0.7420653744002026  0.6360517661915670
  0.7195731940565436  0.7592997786210255  0.8684475978916789
  0.8217155858609765  0.6787899260666819  0.8075386435129017
  0.8263654360781519  0.8209752152943957  0.7955101387002353
  0.1659637124633967  0.3264310955348973  0.6963679251167618
  0.1648941423600400  0.1955670363473037  0.6723368391057458
  0.2735679943972970  0.2663289965380614  0.6384607065451755
  0.1895765675722311  0.2260653868505152  0.8580271789339449
  0.3032983041196924  0.1634242612714078  0.7976875522884427
  0.3037817822968819  0.3038258601012820  0.8243841245243683
  0.1531930930182677  0.7955150773019932  0.6803109499675758
  0.1278215432837318  0.7165824418471456  0.7850559476297834
  0.1946351410760563  0.6691726140474045  0.6758959356158579
  0.2688299663564632  0.8325068061111371  0.8283205988009494
  0.3181047890084822  0.6986479750962834  0.8140952561926101
  0.3383850030142501  0.7934885653081548  0.7086516925146159
 
  0.00000000E+00  0.00000000E+00  0.00000000E+00
  0.00000000E+00  0.00000000E+00  0.00000000E+00
  0.00000000E+00  0.00000000E+00  0.00000000E+00
  0.00000000E+00  0.00000000E+00  0.00000000E+00
  0.00000000E+00  0.00000000E+00  0.00000000E+00
  0.00000000E+00  0.00000000E+00  0.00000000E+00
  0.00000000E+00  0.00000000E+00  0.00000000E+00
  0.00000000E+00  0.00000000E+00  0.00000000E+00
  0.00000000E+00  0.00000000E+00  0.00000000E+00
  0.00000000E+00  0.00000000E+00  0.00000000E+00
  0.00000000E+00  0.00000000E+00  0.00000000E+00
  0.00000000E+00  0.00000000E+00  0.00000000E+00
  0.00000000E+00  0.00000000E+00  0.00000000E+00
  0.00000000E+00  0.00000000E+00  0.00000000E+00
  0.00000000E+00  0.00000000E+00  0.00000000E+00
  0.00000000E+00  0.00000000E+00  0.00000000E+00
  0.00000000E+00  0.00000000E+00  0.00000000E+00
  0.00000000E+00  0.00000000E+00  0.00000000E+00
  0.00000000E+00  0.00000000E+00  0.00000000E+00
  0.00000000E+00  0.00000000E+00  0.00000000E+00
  0.00000000E+00  0.00000000E+00  0.00000000E+00
  0.00000000E+00  0.00000000E+00  0.00000000E+00
  0.00000000E+00  0.00000000E+00  0.00000000E+00
  0.00000000E+00  0.00000000E+00  0.00000000E+00
  0.00000000E+00  0.00000000E+00  0.00000000E+00
  0.00000000E+00  0.00000000E+00  0.00000000E+00
  0.00000000E+00  0.00000000E+00  0.00000000E+00
  0.00000000E+00  0.00000000E+00  0.00000000E+00
  0.00000000E+00  0.00000000E+00  0.00000000E+00
  0.00000000E+00  0.00000000E+00  0.00000000E+00
  0.00000000E+00  0.00000000E+00  0.00000000E+00
  0.00000000E+00  0.00000000E+00  0.00000000E+00
  0.00000000E+00  0.00000000E+00  0.00000000E+00
  0.00000000E+00  0.00000000E+00  0.00000000E+00
  0.00000000E+00  0.00000000E+00  0.00000000E+00
  0.00000000E+00  0.00000000E+00  0.00000000E+00
  0.00000000E+00  0.00000000E+00  0.00000000E+00
  0.00000000E+00  0.00000000E+00  0.00000000E+00
  0.00000000E+00  0.00000000E+00  0.00000000E+00
  0.00000000E+00  0.00000000E+00  0.00000000E+00
  0.00000000E+00  0.00000000E+00  0.00000000E+00
  0.00000000E+00  0.00000000E+00  0.00000000E+00
  0.00000000E+00  0.00000000E+00  0.00000000E+00
  0.00000000E+00  0.00000000E+00  0.00000000E+00
  0.00000000E+00  0.00000000E+00  0.00000000E+00
  0.00000000E+00  0.00000000E+00  0.00000000E+00
  0.00000000E+00  0.00000000E+00  0.00000000E+00
  0.00000000E+00  0.00000000E+00  0.00000000E+00
  0.00000000E+00  0.00000000E+00  0.00000000E+00
  0.00000000E+00  0.00000000E+00  0.00000000E+00
  0.00000000E+00  0.00000000E+00  0.00000000E+00
  0.00000000E+00  0.00000000E+00  0.00000000E+00
  0.00000000E+00  0.00000000E+00  0.00000000E+00
  0.00000000E+00  0.00000000E+00  0.00000000E+00
  0.00000000E+00  0.00000000E+00  0.00000000E+00
  0.00000000E+00  0.00000000E+00  0.00000000E+00
  0.00000000E+00  0.00000000E+00  0.00000000E+00
  0.00000000E+00  0.00000000E+00  0.00000000E+00
  0.00000000E+00  0.00000000E+00  0.00000000E+00
  0.00000000E+00  0.00000000E+00  0.00000000E+00
  0.00000000E+00  0.00000000E+00  0.00000000E+00
  0.00000000E+00  0.00000000E+00  0.00000000E+00
  0.00000000E+00  0.00000000E+00  0.00000000E+00
  0.00000000E+00  0.00000000E+00  0.00000000E+00
  0.00000000E+00  0.00000000E+00  0.00000000E+00
  0.00000000E+00  0.00000000E+00  0.00000000E+00
  0.00000000E+00  0.00000000E+00  0.00000000E+00
  0.00000000E+00  0.00000000E+00  0.00000000E+00
