cubic_FA0250MA0625Cs0125                
   1.00000000000000     
    12.7494642381470946    0.1065149198735209    0.0424424898642939
     0.1055041142137882   12.6888457005516386   -0.0662020569659168
     0.0421404796256094   -0.0663073645525776   12.6290678949360125
   Cs   I    Pb   C    N    H 
     1    24     8     7     9    40
Direct
  0.2692520630917247  0.2505732412356023  0.2268709081978651
  0.0077390319504272  0.9653896840289331  0.2559850231802073
  0.0082206024025741  0.0138224685920481  0.7551283837093531
  0.0526820008822675  0.5195658408322116  0.2492024914782043
  0.9904815504946981  0.4848074690331552  0.7480260949576528
  0.5151833640147885 -0.0003605051669989  0.2451344400857853
  0.4982773155458270  0.0022802625576796  0.7435753231706056
  0.4623366374789671  0.4966207083048607  0.2429484692217301
  0.5461716949910951  0.5026623404381811  0.7417445364588746
  0.0292058361770071  0.2578919889376545  0.0165379040356343
  0.0308672448688103  0.2502309364776373  0.4772064058670972
  0.0178079846224009  0.7573817473626923  0.9887730979388732
 -0.0023127920216153  0.7522115856768117  0.5341263498370075
  0.5019171708289220  0.2581757245134235  0.9860639734996236
  0.4947298774720094  0.2547082395812370  0.4819830071667331
  0.5127335002849611  0.7575278741989497  0.9864581614338285
  0.4986815787381262  0.7555655427028702  0.4932041605814610
  0.2540716219627059  0.5278490424974079  0.5202679003338561
  0.2569413390370670  0.5184463720642992  0.9631532866591062
  0.2523781808798717 -0.0016675703550343  0.4845517701134872
  0.2565924621188142  0.0207203985607391  0.0008947018400032
  0.7559088023829545  0.5190177089422794  0.4636770856185920
  0.7572613482815302  0.4959110570952693  0.0463000526033235
  0.7532977234912649  0.0152869195420410  0.5189207101680147
  0.7578569455816082  0.0319879912528912  0.9955578499636373
  0.5039700616449273  0.0051059805836192  0.9951621364736906
  0.5017489716638918  0.0039414156490480  0.4943934828795794
  0.5034449110912319  0.5090211096223609  0.9914724962315503
  0.5033576233344850  0.5043717092314922  0.4928343041181794
  0.0054723395701671  0.0055344592520370  0.0052467970788195
  0.0005546124025716  0.9995824294138856  0.5047209652945743
  0.0047717816567361  0.5053722513243004 -0.0003847884524684
  0.0020124965908253  0.5001653597905014  0.4978729347743714
  0.7543442106938842  0.2388908112789072  0.2781807397523557
  0.7476641309011480  0.7792523659607886  0.2455385601286781
  0.7723054842859128  0.7629639944996518  0.7822639491254648
  0.2853499547298250  0.7572235289423793  0.2194888661747565
  0.2836184222413112  0.7742153236177897  0.7493858029926657
  0.7764446154510379  0.2822370501144161  0.7477344226482736
  0.2803521913111469  0.2753677045850391  0.7569353864445093
  0.8516623918725593  0.2409656552587238  0.2432880409044358
  0.6727258920213932  0.2768689846619526  0.2277911925338850
  0.8403528474938058  0.7326965574741403  0.2492629245743716
  0.6574384256662564  0.7313562508126844  0.2410036472868121
  0.7080231437862197  0.7251322949976972  0.6915581552876959
  0.2180847064834394  0.7449381310780382  0.3158088017917818
  0.1823896921916058  0.7175422929017711  0.7572474620332673
  0.7149200559039932  0.1837707517822315  0.7570603056191546
  0.2047236795079296  0.2008787442803189  0.7083913709097145
  0.7402439747344102  0.2016638610329992  0.3546593881475877
  0.9103589597843658  0.2119956517406766  0.2898012820080704
  0.8731828723968291  0.2708566074320485  0.1712767809077685
  0.6791349368254219  0.3164068714307626  0.1576850573671417
  0.6003778437211642  0.2731432053072965  0.2624033375158517
  0.7453435782718543  0.8654986752521990  0.2465036252714125
  0.9052636924535682  0.7791443118398572  0.2513744514042389
  0.8510612005474635  0.6526083759072754  0.2479257966163536
  0.6506030667215532  0.6511798278795924  0.2380970719933279
  0.5904534403709242  0.7763650899663301  0.2369328730741855
  0.6592040836148252  0.7834272216874102  0.6615874828127039
  0.6593900054115264  0.6628030653622555  0.7136823251205501
  0.7539727586115652  0.6967524117556256  0.6291445553518044
  0.7192600266577898  0.7875226274003234  0.8469012379913862
  0.8235634787887578  0.6981243119594696  0.8079190343013620
  0.8195644693585594  0.8294110387085686  0.7563475527134086
  0.1405319788140588  0.7346241031733836  0.2953765751912480
  0.2218138042359878  0.8107009646992637  0.3654588171219681
  0.2397608848580625  0.6791578222447698  0.3600456495201633
  0.2619614904269026  0.8300630695683018  0.1793769107915983
  0.3671236572795718  0.7611984510955770  0.2446735122588368
  0.2744610619310863  0.6890406856513444  0.1669468679709280
  0.1329610965432510  0.7342459272098475  0.6939279418703306
  0.1413327245151624  0.7370571670117135  0.8270633423164274
  0.1942117857408263  0.6366709275472908  0.7580810206538392
  0.2676085561618313  0.8591933784881506  0.7540024430759503
  0.3339284609413236  0.7502139179579871  0.8152405161008944
  0.3214420503211275  0.7536414924998588  0.6735507408511419
  0.6348586671757593  0.1979635567229648  0.7556543152932502
  0.7305104658760787  0.1444224219294246  0.8279763143163428
  0.7318981282064121  0.1310494764394239  0.6949312369283549
  0.7492169764563661  0.3387831806082549  0.8084906548786192
  0.8595411799200635  0.2628449058470709  0.7592675764018508
  0.7642566248792244  0.3155650478110144  0.6690153361926781
  0.1475342413410670  0.2394461623530798  0.6642915191860664
  0.1651394540724442  0.1563678128807078  0.7641347675132951
  0.2409845267217710  0.1471849499542484  0.6566558659288625
  0.2377524556863477  0.3281650595087631  0.8120362327697845
  0.3400575058021696  0.2298953941780701  0.7995812964342837
  0.3165947426214409  0.3210553839304565  0.6937340330040214
 
  0.00000000E+00  0.00000000E+00  0.00000000E+00
  0.00000000E+00  0.00000000E+00  0.00000000E+00
  0.00000000E+00  0.00000000E+00  0.00000000E+00
  0.00000000E+00  0.00000000E+00  0.00000000E+00
  0.00000000E+00  0.00000000E+00  0.00000000E+00
  0.00000000E+00  0.00000000E+00  0.00000000E+00
  0.00000000E+00  0.00000000E+00  0.00000000E+00
  0.00000000E+00  0.00000000E+00  0.00000000E+00
  0.00000000E+00  0.00000000E+00  0.00000000E+00
  0.00000000E+00  0.00000000E+00  0.00000000E+00
  0.00000000E+00  0.00000000E+00  0.00000000E+00
  0.00000000E+00  0.00000000E+00  0.00000000E+00
  0.00000000E+00  0.00000000E+00  0.00000000E+00
  0.00000000E+00  0.00000000E+00  0.00000000E+00
  0.00000000E+00  0.00000000E+00  0.00000000E+00
  0.00000000E+00  0.00000000E+00  0.00000000E+00
  0.00000000E+00  0.00000000E+00  0.00000000E+00
  0.00000000E+00  0.00000000E+00  0.00000000E+00
  0.00000000E+00  0.00000000E+00  0.00000000E+00
  0.00000000E+00  0.00000000E+00  0.00000000E+00
  0.00000000E+00  0.00000000E+00  0.00000000E+00
  0.00000000E+00  0.00000000E+00  0.00000000E+00
  0.00000000E+00  0.00000000E+00  0.00000000E+00
  0.00000000E+00  0.00000000E+00  0.00000000E+00
  0.00000000E+00  0.00000000E+00  0.00000000E+00
  0.00000000E+00  0.00000000E+00  0.00000000E+00
  0.00000000E+00  0.00000000E+00  0.00000000E+00
  0.00000000E+00  0.00000000E+00  0.00000000E+00
  0.00000000E+00  0.00000000E+00  0.00000000E+00
  0.00000000E+00  0.00000000E+00  0.00000000E+00
  0.00000000E+00  0.00000000E+00  0.00000000E+00
  0.00000000E+00  0.00000000E+00  0.00000000E+00
  0.00000000E+00  0.00000000E+00  0.00000000E+00
  0.00000000E+00  0.00000000E+00  0.00000000E+00
  0.00000000E+00  0.00000000E+00  0.00000000E+00
  0.00000000E+00  0.00000000E+00  0.00000000E+00
  0.00000000E+00  0.00000000E+00  0.00000000E+00
  0.00000000E+00  0.00000000E+00  0.00000000E+00
  0.00000000E+00  0.00000000E+00  0.00000000E+00
  0.00000000E+00  0.00000000E+00  0.00000000E+00
  0.00000000E+00  0.00000000E+00  0.00000000E+00
  0.00000000E+00  0.00000000E+00  0.00000000E+00
  0.00000000E+00  0.00000000E+00  0.00000000E+00
  0.00000000E+00  0.00000000E+00  0.00000000E+00
  0.00000000E+00  0.00000000E+00  0.00000000E+00
  0.00000000E+00  0.00000000E+00  0.00000000E+00
  0.00000000E+00  0.00000000E+00  0.00000000E+00
  0.00000000E+00  0.00000000E+00  0.00000000E+00
  0.00000000E+00  0.00000000E+00  0.00000000E+00
  0.00000000E+00  0.00000000E+00  0.00000000E+00
  0.00000000E+00  0.00000000E+00  0.00000000E+00
  0.00000000E+00  0.00000000E+00  0.00000000E+00
  0.00000000E+00  0.00000000E+00  0.00000000E+00
  0.00000000E+00  0.00000000E+00  0.00000000E+00
  0.00000000E+00  0.00000000E+00  0.00000000E+00
  0.00000000E+00  0.00000000E+00  0.00000000E+00
  0.00000000E+00  0.00000000E+00  0.00000000E+00
  0.00000000E+00  0.00000000E+00  0.00000000E+00
  0.00000000E+00  0.00000000E+00  0.00000000E+00
  0.00000000E+00  0.00000000E+00  0.00000000E+00
  0.00000000E+00  0.00000000E+00  0.00000000E+00
  0.00000000E+00  0.00000000E+00  0.00000000E+00
  0.00000000E+00  0.00000000E+00  0.00000000E+00
  0.00000000E+00  0.00000000E+00  0.00000000E+00
  0.00000000E+00  0.00000000E+00  0.00000000E+00
  0.00000000E+00  0.00000000E+00  0.00000000E+00
  0.00000000E+00  0.00000000E+00  0.00000000E+00
  0.00000000E+00  0.00000000E+00  0.00000000E+00
  0.00000000E+00  0.00000000E+00  0.00000000E+00
  0.00000000E+00  0.00000000E+00  0.00000000E+00
  0.00000000E+00  0.00000000E+00  0.00000000E+00
  0.00000000E+00  0.00000000E+00  0.00000000E+00
  0.00000000E+00  0.00000000E+00  0.00000000E+00
  0.00000000E+00  0.00000000E+00  0.00000000E+00
  0.00000000E+00  0.00000000E+00  0.00000000E+00
  0.00000000E+00  0.00000000E+00  0.00000000E+00
  0.00000000E+00  0.00000000E+00  0.00000000E+00
  0.00000000E+00  0.00000000E+00  0.00000000E+00
  0.00000000E+00  0.00000000E+00  0.00000000E+00
  0.00000000E+00  0.00000000E+00  0.00000000E+00
  0.00000000E+00  0.00000000E+00  0.00000000E+00
  0.00000000E+00  0.00000000E+00  0.00000000E+00
  0.00000000E+00  0.00000000E+00  0.00000000E+00
  0.00000000E+00  0.00000000E+00  0.00000000E+00
  0.00000000E+00  0.00000000E+00  0.00000000E+00
  0.00000000E+00  0.00000000E+00  0.00000000E+00
  0.00000000E+00  0.00000000E+00  0.00000000E+00
  0.00000000E+00  0.00000000E+00  0.00000000E+00
  0.00000000E+00  0.00000000E+00  0.00000000E+00
