ortho_FA0125MA0500Cs0375                
   1.00000000000000     
    11.0995388016606800    0.0575249347880766    0.2086718371737763
     0.0511468674896462    9.6843760153097982    0.0920551371740447
     0.3444331878337300    0.1714975077874072   18.4256982644303662
   Pb   I    Cs   C    N    H 
     8    24     3     5     6    29
Direct
  0.1654133437135191  0.1322948724178689  0.4497988415228419
  0.1700144010187387  0.6179449220672799  0.4565763107685711
  0.8364984189697704  0.3613334575555713  0.5638146394337235
  0.8440870034848599  0.8631636214246475  0.5651848109255236
  0.3424650987959091  0.3902070202425695  0.9378047774223431
  0.3473759936893495  0.8845066527999614  0.9404099949828787
  0.6545228988566933  0.1416533030627943  0.0547914449973060
  0.6575724950103738  0.6498001732792799  0.0561908125890243
  0.1786257867370933  0.1379675785938913  0.0088293106217180
  0.1744098378480370  0.6409497448102353  0.0008359068154462
  0.8252914664529335  0.4006842479136398  0.9899296887873035
  0.8368198103250591  0.9017054313559075  0.0021550659620444
  0.3371597852360940  0.3643126358579863  0.5120177772223199
  0.3267688494055169  0.8758559403335271  0.5132306233662119
  0.6757315945686181  0.1110557597029380  0.5087999617659613
  0.6735257585372793  0.6240793319528767  0.5114495336028532
  0.2760423125147657  0.1506849887597949  0.2909195458013191
  0.2949434445510858  0.6222750377342409  0.3027859111315981
  0.6918967479687883  0.3539343118785776  0.7159187696517965
  0.6990734218322090  0.8514484370810343  0.7149191321679396
  0.2336353047728683  0.3851136544345155  0.7868045076895356
  0.2381799135562003  0.8874933217067754  0.7895366917116879
  0.7851348509892346  0.1410258021011397  0.2094603398693526
  0.7832313621893812  0.6176426223608478  0.2040145323582834
  0.0216158647463248  0.1164658652853689  0.6175927490618651
  0.0207023373113923  0.6040246142500959  0.6211922101913918
  0.9800635365344427  0.3832302411511295  0.4036373156357894
  0.9954600590259034  0.8696857711801773  0.4009560892473617
  0.4698354612015458  0.3977858574576622  0.1011924992148475
  0.4721129567116282  0.8957633971264122  0.1085488758278798
  0.5378849110761128  0.1368681196197745  0.8945878796218460
  0.5340690067782611  0.6387992767924219  0.8916001518129075
  0.4274092286348479  0.1234811786991767  0.6722023498895229
  0.4253601046585584  0.6269077345384777  0.6726500018378687
  0.0785479147205511  0.8705076812495953  0.1785378848682677
  0.5901569535072376  0.8291780454551896  0.3391317491390900
  0.9640568578336205  0.6609644797744253  0.8402347028550003
  0.5962754649232153  0.3904996360272286  0.3558846082798509
  0.9680566478234327  0.1499952638457735  0.8411052116185325
  0.1023557125947162  0.4436010687591241  0.1838223895497302
  0.6978485030110898  0.8832028763073752  0.3420442520674321
  0.4916955305488635  0.8953754047506456  0.3216697290195251
  0.8703546333893869  0.5820287632629005  0.8037585089632545
  0.5584676046086997  0.3777720734398397  0.2798669236485591
  0.8618767096190345  0.0878365492742701  0.8078473751062443
  0.0258609808225653  0.3549789728469432  0.1396946384936948
  0.5812487159435379  0.7198450916157132  0.3533344140387548
  0.7699005259473859  0.8225499638504786  0.3550907339809322
  0.7166952725837024 -0.0187027869840309  0.3234699209142464
  0.4859324669939026 -0.0015983766988917  0.3093203009461693
  0.4130566279390757  0.8398300302186531  0.3201907951543760
  0.8066926849567798  0.6478558307574972  0.7801765119915426
  0.8248630529876665  0.5158895927290833  0.8398617313823082
  0.9073872459271984  0.5243133537016420  0.7615628416210275
  0.9202132847924858  0.7240578353171778  0.8826257134287450
  0.0279240908468617  0.5885140575885581  0.8646885795963948
  0.0123326701181368  0.7260631476888160  0.7997192803336437
  0.4658150151788107  0.3659070923165638  0.2769729360586632
  0.6021643101760129  0.2943041421433567  0.2548754089663278
  0.5844293474478554  0.4638443326052792  0.2487441437365817
  0.5664135234331229  0.2997947890893166  0.3878327820882071
  0.6948433427739279  0.3982497719944879  0.3555343686194695
  0.5539333688789471  0.4829222540760837  0.3793190623198581
  0.8090648965910954  0.1622633791468283  0.7812072139981733
  0.8063731988691727  0.0386476257925460  0.8463951012432794
  0.8859216945427668  0.0157859969951761  0.7689801571391777
  0.9360540829740099  0.2310653784232400  0.8780930332324410
  0.0160464556502816  0.0701560471253022  0.8718129569111772
  0.0280392321895705  0.1930081132231534  0.7980508283887733
  0.9735679944143694  0.4113465826490831  0.1036373645397430
  0.9647838872814731  0.2966889464787949  0.1717443686535319
  0.0779727014559830  0.2867991279486399  0.1078968466468801
  0.0429230434749399  0.5096878037257772  0.2172879759441773
  0.1575375107864508  0.3777372854047178  0.2187124415449058
  0.1605165512127358  0.5054605534524753  0.1467519256722199
 
  0.00000000E+00  0.00000000E+00  0.00000000E+00
  0.00000000E+00  0.00000000E+00  0.00000000E+00
  0.00000000E+00  0.00000000E+00  0.00000000E+00
  0.00000000E+00  0.00000000E+00  0.00000000E+00
  0.00000000E+00  0.00000000E+00  0.00000000E+00
  0.00000000E+00  0.00000000E+00  0.00000000E+00
  0.00000000E+00  0.00000000E+00  0.00000000E+00
  0.00000000E+00  0.00000000E+00  0.00000000E+00
  0.00000000E+00  0.00000000E+00  0.00000000E+00
  0.00000000E+00  0.00000000E+00  0.00000000E+00
  0.00000000E+00  0.00000000E+00  0.00000000E+00
  0.00000000E+00  0.00000000E+00  0.00000000E+00
  0.00000000E+00  0.00000000E+00  0.00000000E+00
  0.00000000E+00  0.00000000E+00  0.00000000E+00
  0.00000000E+00  0.00000000E+00  0.00000000E+00
  0.00000000E+00  0.00000000E+00  0.00000000E+00
  0.00000000E+00  0.00000000E+00  0.00000000E+00
  0.00000000E+00  0.00000000E+00  0.00000000E+00
  0.00000000E+00  0.00000000E+00  0.00000000E+00
  0.00000000E+00  0.00000000E+00  0.00000000E+00
  0.00000000E+00  0.00000000E+00  0.00000000E+00
  0.00000000E+00  0.00000000E+00  0.00000000E+00
  0.00000000E+00  0.00000000E+00  0.00000000E+00
  0.00000000E+00  0.00000000E+00  0.00000000E+00
  0.00000000E+00  0.00000000E+00  0.00000000E+00
  0.00000000E+00  0.00000000E+00  0.00000000E+00
  0.00000000E+00  0.00000000E+00  0.00000000E+00
  0.00000000E+00  0.00000000E+00  0.00000000E+00
  0.00000000E+00  0.00000000E+00  0.00000000E+00
  0.00000000E+00  0.00000000E+00  0.00000000E+00
  0.00000000E+00  0.00000000E+00  0.00000000E+00
  0.00000000E+00  0.00000000E+00  0.00000000E+00
  0.00000000E+00  0.00000000E+00  0.00000000E+00
  0.00000000E+00  0.00000000E+00  0.00000000E+00
  0.00000000E+00  0.00000000E+00  0.00000000E+00
  0.00000000E+00  0.00000000E+00  0.00000000E+00
  0.00000000E+00  0.00000000E+00  0.00000000E+00
  0.00000000E+00  0.00000000E+00  0.00000000E+00
  0.00000000E+00  0.00000000E+00  0.00000000E+00
  0.00000000E+00  0.00000000E+00  0.00000000E+00
  0.00000000E+00  0.00000000E+00  0.00000000E+00
  0.00000000E+00  0.00000000E+00  0.00000000E+00
  0.00000000E+00  0.00000000E+00  0.00000000E+00
  0.00000000E+00  0.00000000E+00  0.00000000E+00
  0.00000000E+00  0.00000000E+00  0.00000000E+00
  0.00000000E+00  0.00000000E+00  0.00000000E+00
  0.00000000E+00  0.00000000E+00  0.00000000E+00
  0.00000000E+00  0.00000000E+00  0.00000000E+00
  0.00000000E+00  0.00000000E+00  0.00000000E+00
  0.00000000E+00  0.00000000E+00  0.00000000E+00
  0.00000000E+00  0.00000000E+00  0.00000000E+00
  0.00000000E+00  0.00000000E+00  0.00000000E+00
  0.00000000E+00  0.00000000E+00  0.00000000E+00
  0.00000000E+00  0.00000000E+00  0.00000000E+00
  0.00000000E+00  0.00000000E+00  0.00000000E+00
  0.00000000E+00  0.00000000E+00  0.00000000E+00
  0.00000000E+00  0.00000000E+00  0.00000000E+00
  0.00000000E+00  0.00000000E+00  0.00000000E+00
  0.00000000E+00  0.00000000E+00  0.00000000E+00
  0.00000000E+00  0.00000000E+00  0.00000000E+00
  0.00000000E+00  0.00000000E+00  0.00000000E+00
  0.00000000E+00  0.00000000E+00  0.00000000E+00
  0.00000000E+00  0.00000000E+00  0.00000000E+00
  0.00000000E+00  0.00000000E+00  0.00000000E+00
  0.00000000E+00  0.00000000E+00  0.00000000E+00
  0.00000000E+00  0.00000000E+00  0.00000000E+00
  0.00000000E+00  0.00000000E+00  0.00000000E+00
  0.00000000E+00  0.00000000E+00  0.00000000E+00
  0.00000000E+00  0.00000000E+00  0.00000000E+00
  0.00000000E+00  0.00000000E+00  0.00000000E+00
  0.00000000E+00  0.00000000E+00  0.00000000E+00
  0.00000000E+00  0.00000000E+00  0.00000000E+00
  0.00000000E+00  0.00000000E+00  0.00000000E+00
  0.00000000E+00  0.00000000E+00  0.00000000E+00
  0.00000000E+00  0.00000000E+00  0.00000000E+00
