ortho_FA0875MA0000Cs0125                
   1.00000000000000     
    11.3346113281504284   -0.3489955342690849    0.1714950770344911
    -0.3154338141062069    9.3737958759095896   -0.2734422453957686
     0.2861285657848881   -0.4988364564848725   19.6163795582463578
   Pb   I    Cs   C    N    H 
     8    24     1     7    14    35
Direct
  0.1678694367645820  0.1204304919870648  0.4344693801134126
  0.1679644320436338  0.6150918308227216  0.4307958260224521
  0.8641176250419407  0.3666912597508911  0.5544044117986641
  0.8565228347761366  0.8729126803210717  0.5533888206016210
  0.3521231865028255  0.3667117838369174  0.9450472879144277
  0.3434139758271916  0.8605486097200274  0.9377374542706586
  0.6620753732315602  0.1376031616875211  0.0569983443096025
  0.6555334516822737  0.6400367669462426  0.0499629408420190
  0.1717950631353593  0.1054873210292340  0.9905900806700525
  0.1778522470067941  0.6057315576399458  0.0011440283318607
  0.8303329054964986  0.4008739938782745  0.0021107689260786
  0.8300942778503440  0.8918876883481479  0.9969318963407149
  0.3426188675648853  0.3856873279190765  0.4864549146332778
  0.3412417527412079  0.8833262585329237  0.4788237835734973
  0.6968456851991238  0.1035203058120366  0.4895476185833076
  0.6821205572174650  0.5973127211691089  0.5051173565526920
  0.3065420838018498  0.1143330712451979  0.2939103363715749
  0.2980870020244827  0.5928201401224690  0.2930081125574647
  0.7515974126874406  0.3555953115184192  0.6974631474485731
  0.7094097060421261  0.8921398648208853  0.6895059468895917
  0.2452845195838890  0.3692208835516370  0.7988529838266319
  0.2254127141475352  0.8264632932567338  0.7963840432485160
  0.7654764350969929  0.1495519288289127  0.2008524637548733
  0.7613148607351022  0.6412976458177512  0.1984181749337423
  0.0507008784023996  0.1354527514907578  0.5935241231507072
  0.0439813537052554  0.6461861589131515  0.5981526982345544
  0.9789627493280763  0.3459341448883791  0.3891731247997909
  0.9827217527844078  0.8442839887437041  0.3910978283435379
  0.4676589214879971  0.3770874512429639  0.0991157678320135
  0.4618157360202297  0.8840065531998532  0.0924994972209668
  0.5350756922650867  0.1194704152960863  0.8979262342276695
  0.5429588824924104  0.6215357340890080  0.8948013246392329
  0.5792048078760851  0.3843713363673555  0.3305904787229759
  0.5726433563355694  0.8842972322860558  0.3315579109281714
  0.0695610991928134  0.3676952107317695  0.1883990013390889
  0.0685196074761645  0.8742379817645286  0.1886733404772147
  0.4095426495412460  0.1620053057190933  0.6653692246279578
  0.4128737652939108  0.6210624702869735  0.6769054031755555
  0.8978408161641740  0.6255696701058062  0.8306675289435557
  0.9114229669969376  0.0754284760598484  0.8299478266725279
  0.6697732925348833  0.8303150682137675  0.3506899737181866
  0.5376640629838135  0.8807597007799702  0.2685361188277444
  0.1660523573792515  0.3020238141478486  0.1720606102681868
  0.0215148594907952  0.4573136320798556  0.1501452346336646
  0.1671987525539890  0.8101721020753395  0.1766946265479290
  0.0231763034248774  0.9607746288087408  0.1476479407171424
  0.4465026342077880  0.1007116883967137  0.7185674705161673
  0.4547345064554076  0.1479779318215836  0.6033354525488188
  0.5144607059088414  0.5619034173989531  0.6704509143786309
  0.3674054198624178  0.6929873541226231  0.6295294257593217
  0.9813751621918043  0.5552543387528026  0.8561049698827221
  0.9054009179852663  0.6854965853772520  0.7717239555697953
  0.0195111754804385  0.0907480325312732  0.8046071495453241
  0.8389184117883075  0.1788784089649876  0.8393845450052115
  0.5161236781737701  0.9337986887834988  0.3712279060266607
  0.6943098736375166  0.8457053938433610  0.4002376111346311
  0.7270703859067146  0.7846447606068445  0.3156387330858935
  0.5857504285859959  0.8353831539206491  0.2289722173999973
  0.4602060184370957  0.9257035722518939  0.2588545566009654
  0.0257558667787893  0.3454205281412923  0.2375049156259920
  0.2040354589343229  0.2444581419604622  0.2080097918848822
  0.2155018101429042  0.3210173823493789  0.1286685856437470
  0.0581740577309652  0.4847883013790817  0.1038194846975908
  0.9420931497731690  0.4982678722834242  0.1647231419226259
  0.0202632631064570  0.8535270485286148  0.2366449038341691
  0.2000490172480926  0.7500408013745499  0.2134432560443392
  0.2201054819082251  0.8266867774906100  0.1343093707990767
  0.0629846179540915  0.9866634534285511  0.1018459391031219
  0.9435454463533409  0.0034784589445782  0.1604667551845461
  0.3351241721956656  0.2300895924791072  0.6740458895165857
  0.4070669101500843  0.1208719458400827  0.7652105369510603
  0.5174749322210124  0.0374477196844348  0.7154725228994075
  0.5274590483026859  0.0916271196219853  0.5905103823073979
  0.4207413505620000  0.2022231238218208  0.5652068204064062
  0.3617714375506697  0.6104667794689209  0.7247800387855029
  0.5482591814102892  0.5126123907861015  0.7099579627753951
  0.5686756326721436  0.5716053544182560  0.6277007339874108
  0.4062704220160955  0.7062074157770635  0.5823697764031576
  0.2848585248702664  0.7292437964493661  0.6373220620000269
  0.8158705533541829  0.6346874513313484  0.8612008176700554
  0.9698972729556217  0.5204444777442381  0.9046377120012149
  0.0631745756488020  0.5460676723919570  0.8327770092332938
  0.9763313254200340  0.6749457697962057  0.7385714541614707
  0.8332405289017043  0.7300206134047540  0.7525852813177580
  0.8791277868419826  0.9696007770235853  0.8453651317432506
  0.0735156437526358  0.0061109943711147  0.8028220414906093
  0.0610061525675410  0.1885926743771338  0.7946856421003243
  0.8575122202200197  0.2773744453038390  0.8205242007731508
  0.7538159401828483  0.1566378023294188  0.8566430713606094
 
  0.00000000E+00  0.00000000E+00  0.00000000E+00
  0.00000000E+00  0.00000000E+00  0.00000000E+00
  0.00000000E+00  0.00000000E+00  0.00000000E+00
  0.00000000E+00  0.00000000E+00  0.00000000E+00
  0.00000000E+00  0.00000000E+00  0.00000000E+00
  0.00000000E+00  0.00000000E+00  0.00000000E+00
  0.00000000E+00  0.00000000E+00  0.00000000E+00
  0.00000000E+00  0.00000000E+00  0.00000000E+00
  0.00000000E+00  0.00000000E+00  0.00000000E+00
  0.00000000E+00  0.00000000E+00  0.00000000E+00
  0.00000000E+00  0.00000000E+00  0.00000000E+00
  0.00000000E+00  0.00000000E+00  0.00000000E+00
  0.00000000E+00  0.00000000E+00  0.00000000E+00
  0.00000000E+00  0.00000000E+00  0.00000000E+00
  0.00000000E+00  0.00000000E+00  0.00000000E+00
  0.00000000E+00  0.00000000E+00  0.00000000E+00
  0.00000000E+00  0.00000000E+00  0.00000000E+00
  0.00000000E+00  0.00000000E+00  0.00000000E+00
  0.00000000E+00  0.00000000E+00  0.00000000E+00
  0.00000000E+00  0.00000000E+00  0.00000000E+00
  0.00000000E+00  0.00000000E+00  0.00000000E+00
  0.00000000E+00  0.00000000E+00  0.00000000E+00
  0.00000000E+00  0.00000000E+00  0.00000000E+00
  0.00000000E+00  0.00000000E+00  0.00000000E+00
  0.00000000E+00  0.00000000E+00  0.00000000E+00
  0.00000000E+00  0.00000000E+00  0.00000000E+00
  0.00000000E+00  0.00000000E+00  0.00000000E+00
  0.00000000E+00  0.00000000E+00  0.00000000E+00
  0.00000000E+00  0.00000000E+00  0.00000000E+00
  0.00000000E+00  0.00000000E+00  0.00000000E+00
  0.00000000E+00  0.00000000E+00  0.00000000E+00
  0.00000000E+00  0.00000000E+00  0.00000000E+00
  0.00000000E+00  0.00000000E+00  0.00000000E+00
  0.00000000E+00  0.00000000E+00  0.00000000E+00
  0.00000000E+00  0.00000000E+00  0.00000000E+00
  0.00000000E+00  0.00000000E+00  0.00000000E+00
  0.00000000E+00  0.00000000E+00  0.00000000E+00
  0.00000000E+00  0.00000000E+00  0.00000000E+00
  0.00000000E+00  0.00000000E+00  0.00000000E+00
  0.00000000E+00  0.00000000E+00  0.00000000E+00
  0.00000000E+00  0.00000000E+00  0.00000000E+00
  0.00000000E+00  0.00000000E+00  0.00000000E+00
  0.00000000E+00  0.00000000E+00  0.00000000E+00
  0.00000000E+00  0.00000000E+00  0.00000000E+00
  0.00000000E+00  0.00000000E+00  0.00000000E+00
  0.00000000E+00  0.00000000E+00  0.00000000E+00
  0.00000000E+00  0.00000000E+00  0.00000000E+00
  0.00000000E+00  0.00000000E+00  0.00000000E+00
  0.00000000E+00  0.00000000E+00  0.00000000E+00
  0.00000000E+00  0.00000000E+00  0.00000000E+00
  0.00000000E+00  0.00000000E+00  0.00000000E+00
  0.00000000E+00  0.00000000E+00  0.00000000E+00
  0.00000000E+00  0.00000000E+00  0.00000000E+00
  0.00000000E+00  0.00000000E+00  0.00000000E+00
  0.00000000E+00  0.00000000E+00  0.00000000E+00
  0.00000000E+00  0.00000000E+00  0.00000000E+00
  0.00000000E+00  0.00000000E+00  0.00000000E+00
  0.00000000E+00  0.00000000E+00  0.00000000E+00
  0.00000000E+00  0.00000000E+00  0.00000000E+00
  0.00000000E+00  0.00000000E+00  0.00000000E+00
  0.00000000E+00  0.00000000E+00  0.00000000E+00
  0.00000000E+00  0.00000000E+00  0.00000000E+00
  0.00000000E+00  0.00000000E+00  0.00000000E+00
  0.00000000E+00  0.00000000E+00  0.00000000E+00
  0.00000000E+00  0.00000000E+00  0.00000000E+00
  0.00000000E+00  0.00000000E+00  0.00000000E+00
  0.00000000E+00  0.00000000E+00  0.00000000E+00
  0.00000000E+00  0.00000000E+00  0.00000000E+00
  0.00000000E+00  0.00000000E+00  0.00000000E+00
  0.00000000E+00  0.00000000E+00  0.00000000E+00
  0.00000000E+00  0.00000000E+00  0.00000000E+00
  0.00000000E+00  0.00000000E+00  0.00000000E+00
  0.00000000E+00  0.00000000E+00  0.00000000E+00
  0.00000000E+00  0.00000000E+00  0.00000000E+00
  0.00000000E+00  0.00000000E+00  0.00000000E+00
  0.00000000E+00  0.00000000E+00  0.00000000E+00
  0.00000000E+00  0.00000000E+00  0.00000000E+00
  0.00000000E+00  0.00000000E+00  0.00000000E+00
  0.00000000E+00  0.00000000E+00  0.00000000E+00
  0.00000000E+00  0.00000000E+00  0.00000000E+00
  0.00000000E+00  0.00000000E+00  0.00000000E+00
  0.00000000E+00  0.00000000E+00  0.00000000E+00
  0.00000000E+00  0.00000000E+00  0.00000000E+00
  0.00000000E+00  0.00000000E+00  0.00000000E+00
  0.00000000E+00  0.00000000E+00  0.00000000E+00
  0.00000000E+00  0.00000000E+00  0.00000000E+00
  0.00000000E+00  0.00000000E+00  0.00000000E+00
  0.00000000E+00  0.00000000E+00  0.00000000E+00
  0.00000000E+00  0.00000000E+00  0.00000000E+00
