hexa_FA0000MA0875Cs0125                 
   1.00000000000000     
    17.6182004504606518   -0.0323202481673435    1.1059358117462892
    -8.8517407356313331   14.7479110410324914   -0.2335066624664657
     0.4817268663367235    0.1683636630709824    7.8981333935345797
   Pb   I    N    C    H    Cs
     8    24     7     7    42     1
Direct
  0.5116614341760416  0.5118898106047024  0.9778546091963487
  0.5082639984918693  0.0002314514909374  0.9400468368348693
  0.0077439747334629  0.5016800870602498  0.9669691337645980
  0.0111932394500637  0.0075780918167675  0.9550520474218133
  0.0107382976401260  0.0099607604456302  0.4566972616754153
  0.0105996280110059  0.5009736103014820  0.4714861874399691
  0.5106426398028472  0.0001289048762325  0.4389903513299291
  0.5107362804463075  0.5080826210522508  0.4773072643021673
  0.4438660284795205  0.1040792642904937  0.2182780400478553
  0.4427675676362100  0.6100357095583413  0.2593740051830192
  0.9482288544136616  0.1128039164891793  0.2212342917186229
  0.9351085452895846  0.6001766196549486  0.2559339984916704
  0.4222479917931199  0.3340167771539574  0.2474419866730815
  0.4130372519631783  0.8275814704223117  0.2080385371629209
  0.9137443357969754  0.3279186116739825  0.2415636368848696
  0.9129041772879738  0.8358876856531301  0.2299820590083354
  0.1805485226745193  0.0775365708759660  0.1733327103733294
  0.1795889740427572  0.5715142017479453  0.1755460840328985
  0.6813735036197542  0.0663279685157858  0.1482195745869508
  0.6795211132252120  0.5796830693600949  0.1955716092036220
  0.0944035301471741  0.4189907372044260  0.7022847073014532
  0.0962822734931689  0.9197164777708694  0.6731070413473265
  0.5925271509020308  0.4196073244350864  0.7076219671433297
  0.5847557715603255  0.9048791186284294  0.6706689686037323
  0.1142913726438366  0.1836012709541758  0.6975829474914688
  0.1035964107854705  0.6753223761041126  0.7081679284019470
  0.6113274784636044  0.1755757166031864  0.6764226526731794
  0.6142703126779661  0.6823698497095321  0.7180444394430403
  0.3411162070693379  0.4403966706692803  0.7773965120124037
  0.3429238634835441  0.9209269939613132  0.7247197774111963
  0.8382502621965204  0.4191467947362218  0.7614868946799862
  0.8417714706351851  0.9339394231049313  0.7525367483113434
  0.6338664670357148  0.3258379128586613  0.0927566829196142
  0.2989386956175372  0.1524219247075128  0.5812080646471691
  0.1455217070303580  0.3440697331568111  0.1072958795966354
  0.7946738350307014  0.1377537979213883  0.5875229372848346
  0.7993805723206928  0.6371597588437586  0.5925843792806748
  0.6375210968148414  0.8366655460274326  0.0992391174374783
  0.1114481803105873  0.8299542981998694  0.2599629612257732
  0.6939764188392766  0.3553998663205865  0.2279344474941568
  0.3495890410129457  0.1661526571244807  0.7276316681925828
  0.1921152414972772  0.3451972507350706  0.2529679341275383
  0.8575235383256219  0.1761904999526587  0.7181519270251417
  0.8471623844303192  0.6655326535485327  0.7462808931596318
  0.6915585451197096  0.8403023366539152  0.2331926641850734
  0.2010412723511541  0.8519423295397605  0.1773878539997884
  0.6046235838273657  0.3646910706100692  0.0890986626927225
  0.5816356484164580  0.2582249716611325  0.1156310949228804
  0.6686423967393027  0.3319474341323478  0.9732553006996446
  0.6548137969148041  0.3483698502437937  0.3513875863105269
  0.7234610349860002  0.3128161760210345  0.2277271635076110
  0.7465336810847110  0.4265656517591126  0.2002845564188481
  0.2461391163129751  0.1638602671007427  0.6150974474271178
  0.2701911465623684  0.0862975645507347  0.5420229316810874
  0.3389305273254433  0.1961877532895438  0.4770746232241342
  0.3042435560868647  0.1174517797673608  0.8315455866081392
  0.4048388977057550  0.1551385558464267  0.6871755468718974
  0.3751792534050623  0.2357195278647143  0.7690354521428939
  0.1347587803938668  0.3983943946690284  0.1125109822504836
  0.0842909897728901  0.2837567285250178  0.1101465194245871
  0.1839333158436996  0.3513896561296284  0.9913931879475570
  0.1495233569432115  0.3375096756110232  0.3720456309274928
  0.2045490514898551  0.2889786041265033  0.2427623790984804
  0.2552308370731716  0.4103005276788679  0.2474166994631831
  0.7464345349535184  0.1565299581226374  0.6068979507593459
  0.7598310113358048  0.0672474540524009  0.5933144968590910
  0.8278151829310005  0.1602952314190816  0.4652749783929445
  0.8189576128102481  0.1513933148625362  0.8445300351384049
  0.9055770498828832  0.1536569317046001  0.6957624974907620
  0.8918999075095633  0.2504200050540464  0.7073316173533925
  0.7853940745564703  0.6847020190416481  0.5530745740141677
  0.7383796682624543  0.5760229809352110  0.6182700439097648
  0.8365548353070338  0.6271377374552543  0.4904779333123605
  0.8064671012946762  0.6772438086870004  0.8477429603673665
  0.8564046620350425  0.6106827724896979  0.7858139717321520
  0.9119475265705363  0.7278837902898766  0.7139484773289153
  0.6385144305412906  0.8978183499939727  0.0918000810511024
  0.5716090125017035  0.7840344698846811  0.1272404561492474
  0.6621133439756335  0.8265591233941511  0.9801576031167168
  0.6636397171770571  0.8529328339836191  0.3550486576392340
  0.6885405419371211  0.7752562901525671  0.2411660558983650
  0.7605834994482786  0.8955531380610441  0.1984448557304745
  0.0859950023039378  0.8622865366650472  0.1980443669616602
  0.1126493791999440  0.8505121016226286  0.3853843911996581
  0.0643912100804183  0.7601883769952019  0.2618582278762618
  0.2464029906688457  0.9258213145618619  0.1738675662027464
  0.2255967808089341  0.8182650425084145  0.2508509074875283
  0.1955228480053343  0.8278969118071378  0.0473289926053612
  0.3279953227542758  0.6716734651921268  0.6875037502914614
 
  0.00000000E+00  0.00000000E+00  0.00000000E+00
  0.00000000E+00  0.00000000E+00  0.00000000E+00
  0.00000000E+00  0.00000000E+00  0.00000000E+00
  0.00000000E+00  0.00000000E+00  0.00000000E+00
  0.00000000E+00  0.00000000E+00  0.00000000E+00
  0.00000000E+00  0.00000000E+00  0.00000000E+00
  0.00000000E+00  0.00000000E+00  0.00000000E+00
  0.00000000E+00  0.00000000E+00  0.00000000E+00
  0.00000000E+00  0.00000000E+00  0.00000000E+00
  0.00000000E+00  0.00000000E+00  0.00000000E+00
  0.00000000E+00  0.00000000E+00  0.00000000E+00
  0.00000000E+00  0.00000000E+00  0.00000000E+00
  0.00000000E+00  0.00000000E+00  0.00000000E+00
  0.00000000E+00  0.00000000E+00  0.00000000E+00
  0.00000000E+00  0.00000000E+00  0.00000000E+00
  0.00000000E+00  0.00000000E+00  0.00000000E+00
  0.00000000E+00  0.00000000E+00  0.00000000E+00
  0.00000000E+00  0.00000000E+00  0.00000000E+00
  0.00000000E+00  0.00000000E+00  0.00000000E+00
  0.00000000E+00  0.00000000E+00  0.00000000E+00
  0.00000000E+00  0.00000000E+00  0.00000000E+00
  0.00000000E+00  0.00000000E+00  0.00000000E+00
  0.00000000E+00  0.00000000E+00  0.00000000E+00
  0.00000000E+00  0.00000000E+00  0.00000000E+00
  0.00000000E+00  0.00000000E+00  0.00000000E+00
  0.00000000E+00  0.00000000E+00  0.00000000E+00
  0.00000000E+00  0.00000000E+00  0.00000000E+00
  0.00000000E+00  0.00000000E+00  0.00000000E+00
  0.00000000E+00  0.00000000E+00  0.00000000E+00
  0.00000000E+00  0.00000000E+00  0.00000000E+00
  0.00000000E+00  0.00000000E+00  0.00000000E+00
  0.00000000E+00  0.00000000E+00  0.00000000E+00
  0.00000000E+00  0.00000000E+00  0.00000000E+00
  0.00000000E+00  0.00000000E+00  0.00000000E+00
  0.00000000E+00  0.00000000E+00  0.00000000E+00
  0.00000000E+00  0.00000000E+00  0.00000000E+00
  0.00000000E+00  0.00000000E+00  0.00000000E+00
  0.00000000E+00  0.00000000E+00  0.00000000E+00
  0.00000000E+00  0.00000000E+00  0.00000000E+00
  0.00000000E+00  0.00000000E+00  0.00000000E+00
  0.00000000E+00  0.00000000E+00  0.00000000E+00
  0.00000000E+00  0.00000000E+00  0.00000000E+00
  0.00000000E+00  0.00000000E+00  0.00000000E+00
  0.00000000E+00  0.00000000E+00  0.00000000E+00
  0.00000000E+00  0.00000000E+00  0.00000000E+00
  0.00000000E+00  0.00000000E+00  0.00000000E+00
  0.00000000E+00  0.00000000E+00  0.00000000E+00
  0.00000000E+00  0.00000000E+00  0.00000000E+00
  0.00000000E+00  0.00000000E+00  0.00000000E+00
  0.00000000E+00  0.00000000E+00  0.00000000E+00
  0.00000000E+00  0.00000000E+00  0.00000000E+00
  0.00000000E+00  0.00000000E+00  0.00000000E+00
  0.00000000E+00  0.00000000E+00  0.00000000E+00
  0.00000000E+00  0.00000000E+00  0.00000000E+00
  0.00000000E+00  0.00000000E+00  0.00000000E+00
  0.00000000E+00  0.00000000E+00  0.00000000E+00
  0.00000000E+00  0.00000000E+00  0.00000000E+00
  0.00000000E+00  0.00000000E+00  0.00000000E+00
  0.00000000E+00  0.00000000E+00  0.00000000E+00
  0.00000000E+00  0.00000000E+00  0.00000000E+00
  0.00000000E+00  0.00000000E+00  0.00000000E+00
  0.00000000E+00  0.00000000E+00  0.00000000E+00
  0.00000000E+00  0.00000000E+00  0.00000000E+00
  0.00000000E+00  0.00000000E+00  0.00000000E+00
  0.00000000E+00  0.00000000E+00  0.00000000E+00
  0.00000000E+00  0.00000000E+00  0.00000000E+00
  0.00000000E+00  0.00000000E+00  0.00000000E+00
  0.00000000E+00  0.00000000E+00  0.00000000E+00
  0.00000000E+00  0.00000000E+00  0.00000000E+00
  0.00000000E+00  0.00000000E+00  0.00000000E+00
  0.00000000E+00  0.00000000E+00  0.00000000E+00
  0.00000000E+00  0.00000000E+00  0.00000000E+00
  0.00000000E+00  0.00000000E+00  0.00000000E+00
  0.00000000E+00  0.00000000E+00  0.00000000E+00
  0.00000000E+00  0.00000000E+00  0.00000000E+00
  0.00000000E+00  0.00000000E+00  0.00000000E+00
  0.00000000E+00  0.00000000E+00  0.00000000E+00
  0.00000000E+00  0.00000000E+00  0.00000000E+00
  0.00000000E+00  0.00000000E+00  0.00000000E+00
  0.00000000E+00  0.00000000E+00  0.00000000E+00
  0.00000000E+00  0.00000000E+00  0.00000000E+00
  0.00000000E+00  0.00000000E+00  0.00000000E+00
  0.00000000E+00  0.00000000E+00  0.00000000E+00
  0.00000000E+00  0.00000000E+00  0.00000000E+00
  0.00000000E+00  0.00000000E+00  0.00000000E+00
  0.00000000E+00  0.00000000E+00  0.00000000E+00
  0.00000000E+00  0.00000000E+00  0.00000000E+00
  0.00000000E+00  0.00000000E+00  0.00000000E+00
  0.00000000E+00  0.00000000E+00  0.00000000E+00
