hexa_FA0500MA0000Cs0500                 
   1.00000000000000     
    18.7504927053460690   -0.0011294542838165   -0.0000026309655870
    -9.3760793793287416   14.6233256285325499    0.0000002556406138
    -0.0000010639400058   -0.0000005380842507    7.7637225558721132
   Pb   I    N    C    H    Cs
     8    24     8     4    20     4
Direct
  0.5030453350691039  0.5061007589071973  0.9387704193528309
  0.4969071860685359  0.9938022545232751  0.9393909638539286
  0.0030452542408688  0.5061006501609167  0.9387704379273524
  0.9969072845717762  0.9938022861356809  0.9393910425841435
 -0.0030458196136239 -0.0061008581935395  0.4387704358443112
  0.0030921855779925  0.5061976495564640  0.4393909753504872
  0.4969541347358850 -0.0061008031393104  0.4387704916671275
  0.5030923252166494  0.5061977730773581  0.4393909948358407
  0.4164124170124860  0.0781749687971724  0.1890786197812744
  0.4227889039094723  0.5903496866194664  0.1891582937943532
  0.9164125708977520  0.0781750844897404  0.1890786611879411
  0.9227891540525893  0.5903499353157982  0.1891579064479955
  0.4136481130415046  0.3272563843898980  0.1896970654637512
  0.4096256819977122  0.8192653216282294  0.1896498357698612
  0.9136480935987380  0.3272563624587774  0.1896970057486714
  0.9096257034483758  0.8192652982836731  0.1896494767470411
  0.1617845041992815  0.0781751125936636  0.1890800801681161
  0.1675897265114090  0.5903777830909436  0.1891616966375957
  0.6617844089654642  0.0781752769110779  0.1890799624842331
  0.6675897062854427  0.5903775905068281  0.1891612946169553
  0.0835863967097331  0.4218240521189746  0.6890784724314705
  0.0772109698063295  0.9096503705018348  0.6891584237604971
  0.5835866162270276  0.4218243191826623  0.6890786934636673
  0.5772112058056580  0.9096506362619355  0.6891584364636372
  0.0863519454068186  0.1727435956871448  0.6896967417538385
  0.0903758028335738  0.6807345898068882  0.6896499778732957
  0.5863518882675719  0.1727436268637095  0.6896970535823378
  0.5903758055023089  0.6807346657824924  0.6896500507167834
  0.3382152238235354  0.4218251554807018  0.6890795080704089
  0.3324099949373114  0.9096219277373409  0.6891614065449004
  0.8382151895705986  0.4218251474057576  0.6890797563478691
  0.8324100586612693  0.9096220475816245  0.6891615430451529
  0.2221787252796857  0.3201516925036519  0.1865211997904401
  0.7221789440062969  0.3201516144201444  0.1865212457700907
  0.0980418581483102  0.3202116927337413  0.1865439286057791
  0.5980423658696498  0.3202119435544368  0.1865439538200067
  0.2778225545464977  0.1798478266778359  0.6865217872077082
  0.7778224620300798  0.1798475961133843  0.6865217868659372
  0.4019611414807030  0.1797895754588729  0.6865432161509553
  0.9019609966952841  0.1797895052574604  0.6865432590279654
  0.1808375432251199  0.3616287068574819  0.1863982892464742
  0.6808372849998957  0.3616285544247118  0.1863983689000450
  0.3191592382713459  0.1383702357791023  0.6863982097979618
  0.8191592243830619  0.1383702679752253  0.6863982217438104
  0.2182554271261521  0.4364369198981234  0.1861829119923741
  0.7182555431172192  0.4364370104241815  0.1861830693255156
  0.2817446590553681  0.0635632970458190  0.6861828106127145
  0.7817445819436251  0.0635631880927777  0.6861828046922516
  0.1931083385971628  0.2502960458517787  0.1867848455814252
  0.6931083983801453  0.2502960556350649  0.1867848061616704
  0.2869958254801420  0.3572161593655506  0.1865542704846339
  0.7869958615911082  0.3572161021200798  0.1865543260214648
  0.0702778536409334  0.3572449094265622  0.1865851824927927
  0.5702778749910061  0.3572449833827439  0.1865852097114592
  0.0571969791574804  0.2502898025906292  0.1868131060424482
  0.5571969508155518  0.2502896253642656  0.1868130540946042
  0.3068914017423746  0.2497037255713724  0.6867852837039530
  0.8068913837544280  0.2497036883887739  0.6867853355207704
  0.2130036549812883  0.1427834514118418  0.6865549730166454
  0.7130036911666160  0.1427834289600799  0.6865549793637550
  0.4297216399224075  0.1427552965269335  0.6865842055953284
  0.9297216178538147  0.1427551455620441  0.6865842431385215
  0.4428024517047253  0.2497095892844634  0.6868124474653109
  0.9428024078951536  0.2497094718534095  0.6868124851719800
  0.6740012790671818  0.8478210280496207  0.1855954505105265
  0.1740013693024900  0.8478201876404158  0.1855963300924673
  0.8259927702413350  0.6521792805979102  0.6856003628033887
  0.3259918255024716  0.6521785300076710  0.6855959779937036
 
  0.00000000E+00  0.00000000E+00  0.00000000E+00
  0.00000000E+00  0.00000000E+00  0.00000000E+00
  0.00000000E+00  0.00000000E+00  0.00000000E+00
  0.00000000E+00  0.00000000E+00  0.00000000E+00
  0.00000000E+00  0.00000000E+00  0.00000000E+00
  0.00000000E+00  0.00000000E+00  0.00000000E+00
  0.00000000E+00  0.00000000E+00  0.00000000E+00
  0.00000000E+00  0.00000000E+00  0.00000000E+00
  0.00000000E+00  0.00000000E+00  0.00000000E+00
  0.00000000E+00  0.00000000E+00  0.00000000E+00
  0.00000000E+00  0.00000000E+00  0.00000000E+00
  0.00000000E+00  0.00000000E+00  0.00000000E+00
  0.00000000E+00  0.00000000E+00  0.00000000E+00
  0.00000000E+00  0.00000000E+00  0.00000000E+00
  0.00000000E+00  0.00000000E+00  0.00000000E+00
  0.00000000E+00  0.00000000E+00  0.00000000E+00
  0.00000000E+00  0.00000000E+00  0.00000000E+00
  0.00000000E+00  0.00000000E+00  0.00000000E+00
  0.00000000E+00  0.00000000E+00  0.00000000E+00
  0.00000000E+00  0.00000000E+00  0.00000000E+00
  0.00000000E+00  0.00000000E+00  0.00000000E+00
  0.00000000E+00  0.00000000E+00  0.00000000E+00
  0.00000000E+00  0.00000000E+00  0.00000000E+00
  0.00000000E+00  0.00000000E+00  0.00000000E+00
  0.00000000E+00  0.00000000E+00  0.00000000E+00
  0.00000000E+00  0.00000000E+00  0.00000000E+00
  0.00000000E+00  0.00000000E+00  0.00000000E+00
  0.00000000E+00  0.00000000E+00  0.00000000E+00
  0.00000000E+00  0.00000000E+00  0.00000000E+00
  0.00000000E+00  0.00000000E+00  0.00000000E+00
  0.00000000E+00  0.00000000E+00  0.00000000E+00
  0.00000000E+00  0.00000000E+00  0.00000000E+00
  0.00000000E+00  0.00000000E+00  0.00000000E+00
  0.00000000E+00  0.00000000E+00  0.00000000E+00
  0.00000000E+00  0.00000000E+00  0.00000000E+00
  0.00000000E+00  0.00000000E+00  0.00000000E+00
  0.00000000E+00  0.00000000E+00  0.00000000E+00
  0.00000000E+00  0.00000000E+00  0.00000000E+00
  0.00000000E+00  0.00000000E+00  0.00000000E+00
  0.00000000E+00  0.00000000E+00  0.00000000E+00
  0.00000000E+00  0.00000000E+00  0.00000000E+00
  0.00000000E+00  0.00000000E+00  0.00000000E+00
  0.00000000E+00  0.00000000E+00  0.00000000E+00
  0.00000000E+00  0.00000000E+00  0.00000000E+00
  0.00000000E+00  0.00000000E+00  0.00000000E+00
  0.00000000E+00  0.00000000E+00  0.00000000E+00
  0.00000000E+00  0.00000000E+00  0.00000000E+00
  0.00000000E+00  0.00000000E+00  0.00000000E+00
  0.00000000E+00  0.00000000E+00  0.00000000E+00
  0.00000000E+00  0.00000000E+00  0.00000000E+00
  0.00000000E+00  0.00000000E+00  0.00000000E+00
  0.00000000E+00  0.00000000E+00  0.00000000E+00
  0.00000000E+00  0.00000000E+00  0.00000000E+00
  0.00000000E+00  0.00000000E+00  0.00000000E+00
  0.00000000E+00  0.00000000E+00  0.00000000E+00
  0.00000000E+00  0.00000000E+00  0.00000000E+00
  0.00000000E+00  0.00000000E+00  0.00000000E+00
  0.00000000E+00  0.00000000E+00  0.00000000E+00
  0.00000000E+00  0.00000000E+00  0.00000000E+00
  0.00000000E+00  0.00000000E+00  0.00000000E+00
  0.00000000E+00  0.00000000E+00  0.00000000E+00
  0.00000000E+00  0.00000000E+00  0.00000000E+00
  0.00000000E+00  0.00000000E+00  0.00000000E+00
  0.00000000E+00  0.00000000E+00  0.00000000E+00
  0.00000000E+00  0.00000000E+00  0.00000000E+00
  0.00000000E+00  0.00000000E+00  0.00000000E+00
  0.00000000E+00  0.00000000E+00  0.00000000E+00
  0.00000000E+00  0.00000000E+00  0.00000000E+00
