cubic_FA0250MA0125Cs0625                
   1.00000000000000     
    12.6606948932495271   -0.1265542980469735    0.1108162334898209
    -0.1260816440650352   12.7037576507248833   -0.1435501666801682
     0.1103422028095903   -0.1436352002832215   12.7631591977132128
   Cs   I    Pb   C    N    H 
     5    24     8     3     5    16
Direct
  0.2589395217630243  0.2417261778880463  0.2609508425286733
  0.2572011743031302  0.2487177089384921  0.7494362849457469
  0.2304450224342670  0.7501897739075175  0.2429457148601080
  0.7477577755635016  0.2449618809695068  0.7469645446353316
  0.7525718623734092  0.7572959511048025  0.7383895546395777
  0.0087792304061263  0.9866943248575742  0.2474792542137729
  0.9851980723190850  0.0107114601476583  0.7491451750003145
  0.9751985217691334  0.5020500631371055  0.2526830972153267
  0.0381684707443369  0.4729980840834513  0.7525940582570757
  0.4951228469935347  0.0026243240358453  0.2439111899962566
  0.5041078170551533  0.0002152330368063  0.7447688185045889
  0.5478253352319137  0.4674575905405329  0.2480483294260940
  0.4880209196730291  0.4750482337227537  0.7513335279056389
  0.9586279218190048  0.2506854504842780  0.0097623425843270
  0.0365874020952391  0.2452129818666920  0.4980930037901625
  0.0275239486086975  0.7509477756033955  0.9853256598729957
  0.9780634349653009  0.7454305717218550  0.5162663280208434
  0.5240390886529557  0.2428968330269020  0.9850126143742439
  0.4688882750130924  0.2407619870573333  0.5049461391643323
  0.4654166097648639  0.7412128864786509  0.0084317010431568
  0.5182594023372128  0.7411434828273975  0.5102687380485884
  0.2587794587143421  0.5158161859374346  0.4524413009817222
  0.2518011850841147  0.4646162281247856  0.0396286501456860
  0.2487884404431087  0.9683259165240526  0.4816368871156716
  0.2429275918502829  0.0461141437934003  0.9931591583429278
  0.7568672682897197  0.4807471813541290  0.5432524051975125
  0.7542900965005959  0.5264337982254891  0.9654156919892182
  0.7490957651535628  0.0039576512990643  0.5046496719527971
  0.7412599242890340  0.9859270919610426  0.9908419286143996
  0.4880868071742610  0.9930066752845829  0.9939167022078270
  0.4990712407617829  0.9931216142558500  0.4947540950761533
  0.5007806634441547  0.4919261727382334  0.0019535781379442
  0.5069274254939126  0.4896463168539142  0.4977897999108689
  0.9968644172309722  0.9997035361635246  0.0001721616855913
  0.9975136561683192  0.9984107968476403  0.4958580596937184
  0.0050114824142861  0.4986583078424092 -0.0009834351684150
  0.0098375213112780  0.4953520042362899  0.5038344188479007
  0.2500616886978436  0.7560633414602902  0.7708522013141781
  0.7481895391251102  0.7687614232172028  0.2528169646534477
  0.7651476218895308  0.2359520561943877  0.2918243598943159
  0.3450448179316368  0.7221588751796979  0.7482333731780020
  0.1893892774248341  0.8039471346622915  0.7055288163337455
  0.7734978358031531  0.6946348209070573  0.3174962811848205
  0.7422161199402860  0.7562139993992746  0.1506876157641209
  0.7309582511120097  0.2573670747580036  0.1835335994729073
  0.2183455237488280  0.7431108138510942  0.8497994627919112
  0.3873493104063818  0.6889860542930685  0.8060093287346718
  0.3817546852600605  0.7309776794749394  0.6763432480706569
  0.2136564039094317  0.8249219590909165  0.6315691510868933
  0.1175857043840776  0.8307745911953166  0.7306183834303008
  0.7298049548957604  0.8463455042711622  0.2867771844239683
  0.7826148926987782  0.7128071912306480  0.3951835134840402
  0.8014984572600615  0.6229571974820151  0.2916484386895472
  0.7565382342676327  0.6858322210476068  0.1118810273272001
  0.7259345452683416  0.8200130117961288  0.1058603649604864
  0.6815176457802168  0.3222204233349549  0.1837482653252800
  0.6888621561919984  0.1947466302253515  0.1506656046575634
  0.7957324574597764  0.2715671189231289  0.1334899158296543
  0.6951793070391830  0.2173561627197432  0.3400136709538182
  0.8189107647934993  0.1695118089442603  0.2892501239765958
  0.8054592317997911  0.3066100680333197  0.3231108133077216
 
  0.00000000E+00  0.00000000E+00  0.00000000E+00
  0.00000000E+00  0.00000000E+00  0.00000000E+00
  0.00000000E+00  0.00000000E+00  0.00000000E+00
  0.00000000E+00  0.00000000E+00  0.00000000E+00
  0.00000000E+00  0.00000000E+00  0.00000000E+00
  0.00000000E+00  0.00000000E+00  0.00000000E+00
  0.00000000E+00  0.00000000E+00  0.00000000E+00
  0.00000000E+00  0.00000000E+00  0.00000000E+00
  0.00000000E+00  0.00000000E+00  0.00000000E+00
  0.00000000E+00  0.00000000E+00  0.00000000E+00
  0.00000000E+00  0.00000000E+00  0.00000000E+00
  0.00000000E+00  0.00000000E+00  0.00000000E+00
  0.00000000E+00  0.00000000E+00  0.00000000E+00
  0.00000000E+00  0.00000000E+00  0.00000000E+00
  0.00000000E+00  0.00000000E+00  0.00000000E+00
  0.00000000E+00  0.00000000E+00  0.00000000E+00
  0.00000000E+00  0.00000000E+00  0.00000000E+00
  0.00000000E+00  0.00000000E+00  0.00000000E+00
  0.00000000E+00  0.00000000E+00  0.00000000E+00
  0.00000000E+00  0.00000000E+00  0.00000000E+00
  0.00000000E+00  0.00000000E+00  0.00000000E+00
  0.00000000E+00  0.00000000E+00  0.00000000E+00
  0.00000000E+00  0.00000000E+00  0.00000000E+00
  0.00000000E+00  0.00000000E+00  0.00000000E+00
  0.00000000E+00  0.00000000E+00  0.00000000E+00
  0.00000000E+00  0.00000000E+00  0.00000000E+00
  0.00000000E+00  0.00000000E+00  0.00000000E+00
  0.00000000E+00  0.00000000E+00  0.00000000E+00
  0.00000000E+00  0.00000000E+00  0.00000000E+00
  0.00000000E+00  0.00000000E+00  0.00000000E+00
  0.00000000E+00  0.00000000E+00  0.00000000E+00
  0.00000000E+00  0.00000000E+00  0.00000000E+00
  0.00000000E+00  0.00000000E+00  0.00000000E+00
  0.00000000E+00  0.00000000E+00  0.00000000E+00
  0.00000000E+00  0.00000000E+00  0.00000000E+00
  0.00000000E+00  0.00000000E+00  0.00000000E+00
  0.00000000E+00  0.00000000E+00  0.00000000E+00
  0.00000000E+00  0.00000000E+00  0.00000000E+00
  0.00000000E+00  0.00000000E+00  0.00000000E+00
  0.00000000E+00  0.00000000E+00  0.00000000E+00
  0.00000000E+00  0.00000000E+00  0.00000000E+00
  0.00000000E+00  0.00000000E+00  0.00000000E+00
  0.00000000E+00  0.00000000E+00  0.00000000E+00
  0.00000000E+00  0.00000000E+00  0.00000000E+00
  0.00000000E+00  0.00000000E+00  0.00000000E+00
  0.00000000E+00  0.00000000E+00  0.00000000E+00
  0.00000000E+00  0.00000000E+00  0.00000000E+00
  0.00000000E+00  0.00000000E+00  0.00000000E+00
  0.00000000E+00  0.00000000E+00  0.00000000E+00
  0.00000000E+00  0.00000000E+00  0.00000000E+00
  0.00000000E+00  0.00000000E+00  0.00000000E+00
  0.00000000E+00  0.00000000E+00  0.00000000E+00
  0.00000000E+00  0.00000000E+00  0.00000000E+00
  0.00000000E+00  0.00000000E+00  0.00000000E+00
  0.00000000E+00  0.00000000E+00  0.00000000E+00
  0.00000000E+00  0.00000000E+00  0.00000000E+00
  0.00000000E+00  0.00000000E+00  0.00000000E+00
  0.00000000E+00  0.00000000E+00  0.00000000E+00
  0.00000000E+00  0.00000000E+00  0.00000000E+00
  0.00000000E+00  0.00000000E+00  0.00000000E+00
  0.00000000E+00  0.00000000E+00  0.00000000E+00
