hexa_FA0000MA1000Cs0000                 
   1.00000000000000     
    17.5765801685317733    0.2511389522966573    0.2564367917057062
    -8.6141446721558808   14.8250375224649158   -0.5086216127378711
     0.1133284155960247   -0.1951761373309720    7.7974242585136606
   Pb   I    N    C    H 
     8    24     8     8    48
Direct
  0.5060525802702104  0.4929039097477695  0.9364982522418960
  0.5097415048304765  0.0002246926842302  0.9724012668154896
  0.0131378878822027  0.5128934956500873  0.9600146400441881
  0.0095301606155124  0.0089446213464323  0.9202233756289097
  0.0029761590931090  0.0035628418465442  0.4244729203759054
  0.0125615508461798  0.5162423707988923  0.4608710477127377
  0.5122657955191214  0.0008750750624087  0.4711404267259975
  0.5118836309940125  0.4946218024308944  0.4384934908188418
  0.4353824241866777  0.0997521877702046  0.2564018087654517
  0.4333589495382077  0.5899199914642766  0.2145631114560725
  0.9327107319747688  0.1025713982487897  0.1857686029997072
  0.9352041308509715  0.6065372624624283  0.2194933269620532
  0.4213516744930461  0.3239849350535514  0.1789615462871426
  0.4289881128028536  0.8302849349803615  0.2093729409646370
  0.9298160894179770  0.3424568870323623  0.2031761481675338
  0.9141182214358372  0.8338947404957203  0.1425288995860938
  0.1739284125396647  0.0798011740083196  0.1805333075628947
  0.1825402997852397  0.5964561103622140  0.2148902982229134
  0.6824298167815799  0.0880864806630720  0.2254712648032025
  0.6788646815178675  0.5700944859888578  0.1769479338001906
  0.1039622854120916  0.4286708016057252  0.6889891033872594
  0.0958838112211925  0.9201113050183365  0.6447526136839843
  0.5847446723774236  0.3965733037743912  0.6795659611316314
  0.5915349518288202  0.9089523779696626  0.7197687560314040
  0.1049760776698754  0.1787805092899586  0.6747682747422635
  0.0999941381688556  0.6873084936091575  0.7381517781520673
  0.6157869080099052  0.1739881887364845  0.7451961546256944
  0.6128929150101109  0.6686177752114743  0.7088234900442868
  0.3424219921955385  0.4055048653096324  0.6726961549241702
  0.3452549247921188  0.9134680989603722  0.7219950085797454
  0.8437259202414994  0.4359997746546202  0.7162719460003972
  0.8380974864314461  0.9354580191290564  0.6844286179803080
  0.3164974664564640  0.1694409688492216  0.5765773500020915
  0.1188195672246796  0.3171038139094809  0.2662630752629350
  0.6278444928181254  0.3248430161529464  0.0973634283125363
  0.2819291420210316  0.6511589107185364  0.6457510799921492
  0.7905082421266553  0.6193759272409222  0.7613703317080187
  0.1149287606451023  0.8335234613592239  0.1884621230216964
  0.7891511339821283  0.1194753827427858  0.6443548032681727
  0.6162978047677314  0.7990878265260262  0.1089882051752787
  0.3345506095597762  0.1529560633775554  0.7526613590957719
  0.1972899809195425  0.3609365906580065  0.1543789272974568
  0.6945419289075829  0.3446195849763344  0.2313834960263428
  0.3703780650865969  0.6695754013699743  0.6971858328990576
  0.8658724314005598  0.6950856916486581  0.6785080392308193
  0.2064459070073021  0.8501341619247192  0.1917306135310764
  0.8742940970426473  0.1943463277768131  0.7078903354325863
  0.6994872476785605  0.8621698795742319  0.1988095560270628
  0.3325827695369281  0.2360256258529100  0.5673344821526946
  0.2508443032875459  0.1309543242835267  0.5457825093261032
  0.3515639572432712  0.1540539733203276  0.4833846357656799
  0.2959397850817692  0.1697304213316771  0.8447834873402446
  0.3160016792124901  0.0821256999234629  0.7579510244649866
  0.4043449931954646  0.1956152218801885  0.7790622931666761
  0.0729425014144263  0.3373191449109828  0.2419260267255040
  0.1341578588555428  0.3316971420820451  0.3957011001160542
  0.0850295146950155  0.2474973442332503  0.2465639867986306
  0.2265474290064244  0.4337320769247635  0.1754938897645421
  0.2439135959874845  0.3391651634709614  0.1870714474756781
  0.1768675706277264  0.3414832925653189  0.0200101848196723
  0.6461547329788784  0.3787886032215463  0.0210927765467735
  0.5674230307515478  0.3107462902117347  0.1496718301693188
  0.6182146827147035  0.2705995163854106  0.0147363064861051
  0.7065903733489286  0.4059342583356145  0.3049886372501088
  0.6696635668326457  0.2880534599691736  0.3149773109560285
  0.7546560456402944  0.3539291730610821  0.1680374244602259
  0.2778729792049629  0.6584091887628787  0.5155198321016714
  0.2621920808007822  0.6928575120468436  0.7104511217687568
  0.2338839840383759  0.5851625879291098  0.6686528592839354
  0.4167860041867279  0.7408250220090548  0.6837282520177902
  0.3679400448161245  0.6522123607603444  0.8309719526566987
  0.3892337608804589  0.6284467928759694  0.6131613298833750
  0.7315993585503093  0.6150214495355977  0.7266056795813269
  0.7930060654186434  0.6272540113966207  0.8944245376571813
  0.7883802412655163  0.5584515976222252  0.7295306111712332
  0.8672753605144730  0.7576816376331127  0.7216854341132067
  0.9262191717809956  0.6964958828611657  0.7155643316744035
  0.8574029009133727  0.6845775909312216  0.5388381126179895
  0.1025474766051906  0.8584712505792289  0.0814579319474761
  0.1019190047218859  0.8644802867207770  0.2948884831009734
  0.0686966055764979  0.7653505225611611  0.1888591872043151
  0.2509048939869535  0.9224659067708791  0.1903952617328181
  0.2157233801228849  0.8237775426375334  0.3092099884607070
  0.2172277894539225  0.8158912437440310  0.0786377643029098
  0.7792441962152112  0.1220152412450384  0.5140788013629117
  0.7367268397825639  0.1210517476450490  0.7071830868154166
  0.7849188929450075  0.0576320459325562  0.6618618356838666
  0.8751560439323366  0.2579132257072770  0.6938524982405481
  0.8812035044800749  0.1852830364617709  0.8434603013379378
  0.9270523033252147  0.1922809182538027  0.6332535027713320
  0.5755529588269725  0.8268467648262668  0.1002310545644237
  0.5793459784820388  0.7399175227921698  0.1725929323572595
  0.6267093022206917  0.7800288064615912  0.9853499135281877
  0.6840601603696229  0.8818014554118832  0.3255451074788219
  0.7385571611531822  0.8289835394045253  0.2114388936825485
  0.7350492280085428  0.9214297753887701  0.1229328299949212
 
  0.00000000E+00  0.00000000E+00  0.00000000E+00
  0.00000000E+00  0.00000000E+00  0.00000000E+00
  0.00000000E+00  0.00000000E+00  0.00000000E+00
  0.00000000E+00  0.00000000E+00  0.00000000E+00
  0.00000000E+00  0.00000000E+00  0.00000000E+00
  0.00000000E+00  0.00000000E+00  0.00000000E+00
  0.00000000E+00  0.00000000E+00  0.00000000E+00
  0.00000000E+00  0.00000000E+00  0.00000000E+00
  0.00000000E+00  0.00000000E+00  0.00000000E+00
  0.00000000E+00  0.00000000E+00  0.00000000E+00
  0.00000000E+00  0.00000000E+00  0.00000000E+00
  0.00000000E+00  0.00000000E+00  0.00000000E+00
  0.00000000E+00  0.00000000E+00  0.00000000E+00
  0.00000000E+00  0.00000000E+00  0.00000000E+00
  0.00000000E+00  0.00000000E+00  0.00000000E+00
  0.00000000E+00  0.00000000E+00  0.00000000E+00
  0.00000000E+00  0.00000000E+00  0.00000000E+00
  0.00000000E+00  0.00000000E+00  0.00000000E+00
  0.00000000E+00  0.00000000E+00  0.00000000E+00
  0.00000000E+00  0.00000000E+00  0.00000000E+00
  0.00000000E+00  0.00000000E+00  0.00000000E+00
  0.00000000E+00  0.00000000E+00  0.00000000E+00
  0.00000000E+00  0.00000000E+00  0.00000000E+00
  0.00000000E+00  0.00000000E+00  0.00000000E+00
  0.00000000E+00  0.00000000E+00  0.00000000E+00
  0.00000000E+00  0.00000000E+00  0.00000000E+00
  0.00000000E+00  0.00000000E+00  0.00000000E+00
  0.00000000E+00  0.00000000E+00  0.00000000E+00
  0.00000000E+00  0.00000000E+00  0.00000000E+00
  0.00000000E+00  0.00000000E+00  0.00000000E+00
  0.00000000E+00  0.00000000E+00  0.00000000E+00
  0.00000000E+00  0.00000000E+00  0.00000000E+00
  0.00000000E+00  0.00000000E+00  0.00000000E+00
  0.00000000E+00  0.00000000E+00  0.00000000E+00
  0.00000000E+00  0.00000000E+00  0.00000000E+00
  0.00000000E+00  0.00000000E+00  0.00000000E+00
  0.00000000E+00  0.00000000E+00  0.00000000E+00
  0.00000000E+00  0.00000000E+00  0.00000000E+00
  0.00000000E+00  0.00000000E+00  0.00000000E+00
  0.00000000E+00  0.00000000E+00  0.00000000E+00
  0.00000000E+00  0.00000000E+00  0.00000000E+00
  0.00000000E+00  0.00000000E+00  0.00000000E+00
  0.00000000E+00  0.00000000E+00  0.00000000E+00
  0.00000000E+00  0.00000000E+00  0.00000000E+00
  0.00000000E+00  0.00000000E+00  0.00000000E+00
  0.00000000E+00  0.00000000E+00  0.00000000E+00
  0.00000000E+00  0.00000000E+00  0.00000000E+00
  0.00000000E+00  0.00000000E+00  0.00000000E+00
  0.00000000E+00  0.00000000E+00  0.00000000E+00
  0.00000000E+00  0.00000000E+00  0.00000000E+00
  0.00000000E+00  0.00000000E+00  0.00000000E+00
  0.00000000E+00  0.00000000E+00  0.00000000E+00
  0.00000000E+00  0.00000000E+00  0.00000000E+00
  0.00000000E+00  0.00000000E+00  0.00000000E+00
  0.00000000E+00  0.00000000E+00  0.00000000E+00
  0.00000000E+00  0.00000000E+00  0.00000000E+00
  0.00000000E+00  0.00000000E+00  0.00000000E+00
  0.00000000E+00  0.00000000E+00  0.00000000E+00
  0.00000000E+00  0.00000000E+00  0.00000000E+00
  0.00000000E+00  0.00000000E+00  0.00000000E+00
  0.00000000E+00  0.00000000E+00  0.00000000E+00
  0.00000000E+00  0.00000000E+00  0.00000000E+00
  0.00000000E+00  0.00000000E+00  0.00000000E+00
  0.00000000E+00  0.00000000E+00  0.00000000E+00
  0.00000000E+00  0.00000000E+00  0.00000000E+00
  0.00000000E+00  0.00000000E+00  0.00000000E+00
  0.00000000E+00  0.00000000E+00  0.00000000E+00
  0.00000000E+00  0.00000000E+00  0.00000000E+00
  0.00000000E+00  0.00000000E+00  0.00000000E+00
  0.00000000E+00  0.00000000E+00  0.00000000E+00
  0.00000000E+00  0.00000000E+00  0.00000000E+00
  0.00000000E+00  0.00000000E+00  0.00000000E+00
  0.00000000E+00  0.00000000E+00  0.00000000E+00
  0.00000000E+00  0.00000000E+00  0.00000000E+00
  0.00000000E+00  0.00000000E+00  0.00000000E+00
  0.00000000E+00  0.00000000E+00  0.00000000E+00
  0.00000000E+00  0.00000000E+00  0.00000000E+00
  0.00000000E+00  0.00000000E+00  0.00000000E+00
  0.00000000E+00  0.00000000E+00  0.00000000E+00
  0.00000000E+00  0.00000000E+00  0.00000000E+00
  0.00000000E+00  0.00000000E+00  0.00000000E+00
  0.00000000E+00  0.00000000E+00  0.00000000E+00
  0.00000000E+00  0.00000000E+00  0.00000000E+00
  0.00000000E+00  0.00000000E+00  0.00000000E+00
  0.00000000E+00  0.00000000E+00  0.00000000E+00
  0.00000000E+00  0.00000000E+00  0.00000000E+00
  0.00000000E+00  0.00000000E+00  0.00000000E+00
  0.00000000E+00  0.00000000E+00  0.00000000E+00
  0.00000000E+00  0.00000000E+00  0.00000000E+00
  0.00000000E+00  0.00000000E+00  0.00000000E+00
  0.00000000E+00  0.00000000E+00  0.00000000E+00
  0.00000000E+00  0.00000000E+00  0.00000000E+00
  0.00000000E+00  0.00000000E+00  0.00000000E+00
  0.00000000E+00  0.00000000E+00  0.00000000E+00
  0.00000000E+00  0.00000000E+00  0.00000000E+00
  0.00000000E+00  0.00000000E+00  0.00000000E+00
