hexa_FA0000MA0500Cs0500                 
   1.00000000000000     
    17.4987563740562493    0.1605661509574640   -0.4261788695774719
    -8.6400375584588183   14.9552980301425489    0.2367331823134160
    -0.1867549701579336    0.0134472496479874    7.7917427054026138
   Pb   I    N    C    H    Cs
     8    24     4     4    24     4
Direct
  0.5106786762572472  0.5015144455026492  0.9367057107033431
  0.5022023033653460  0.9983192387799620  0.9299964914425828
  0.0042089300092499  0.5061088208792536  0.9286660623342076
  0.0075812861019555  0.0060266607570251  0.9318135269271400
  0.0054650584590630  0.0068064583493799  0.4333110116677432
  0.0006919284232492  0.5014247689561321  0.4271582587027307
  0.5034789277257856  0.9984300571492394  0.4285891674443728
  0.5120935516867212  0.5014356198116753  0.4375783728652887
  0.4308891413545523  0.0977222262991758  0.1658983976282639
  0.4363093950308943  0.5973272167096648  0.1783094945531509
  0.9173573217311937  0.0889042566539763  0.1590219170426317
  0.9112982329361576  0.5809457351141141  0.1600973407694783
  0.4286924952590139  0.3302144998298463  0.1889935871650723
  0.4197520150874278  0.8291491152002818  0.1800903463296966
  0.9221840701025965  0.3323295325090990  0.1655001126433817
  0.9304703699682066  0.8321259706928249  0.1836585710619500
  0.1755101199075484  0.0952724793920881  0.1965835235775533
  0.1748099058441178  0.5980628918222326  0.1997615727759202
  0.6754196663987349  0.0773601871855343  0.1831871534794790
  0.6828281425705950  0.5858527862878834  0.1993385265099793
  0.0927635024105776  0.4167249543160502  0.6858180597075120
  0.0876935553421408  0.9167675545833480  0.6876235686430174
  0.5909062255020869  0.4063502463076950  0.7048802535699645
  0.5784944093672408  0.9008716527573996  0.6937293771418978
  0.1003249092254564  0.1771133531742690  0.6796719637473974
  0.0849717198333402  0.6780284260035139  0.6614647874811957
  0.6102899966086532  0.1709105603374681  0.6778265210968751
  0.6081567221519990  0.6734325952498360  0.6872542990821647
  0.3419613050465644  0.4136455584451856  0.6725940800824177
  0.3343481606022369  0.9324093024251271  0.6557944290366009
  0.8355224750744273  0.4251197867328023  0.6719935083223573
  0.8339160616100509  0.9241572313935867  0.6696632379791161
  0.1442734128581573  0.8464329540204411  0.2799855516185960
  0.1191669590751159  0.3132346751146289  0.2345231916275814
  0.2715263781682294  0.6372121046699064  0.6695229551526961
  0.7814440646177128  0.1076660814571797  0.7373373943928898
  0.1911593303941718  0.8530084944370562  0.1204139837317300
  0.2075964036280894  0.3749761696150907  0.1666270596784558
  0.3651117578481913  0.6583292019261107  0.6857687980439430
  0.8607597609099651  0.1857944916969862  0.6684808369599450
  0.0844034372096137  0.8449757709567792  0.2517782002294411
  0.1810476338493037  0.8998982215847984  0.3608603800165938
  0.1304876478404483  0.7896704969324103  0.3510248009006659
  0.2067291611143669  0.9159686381322087  0.0559079303238251
  0.2516944554896185  0.8512256446035786  0.1552618877871650
  0.1481694295199215  0.7969622172728063  0.0369425427013394
  0.0709909573772130  0.3287894742645976  0.1895993391782589
  0.1200878591221782  0.3153458726491844  0.3673682962923060
  0.0964620357211687  0.2475129166348616  0.2010934303214451
  0.2256136654939011  0.4432192250828961  0.2002372465960070
  0.2554147817339919  0.3575355542492639  0.2246593148972291
  0.2043522192141611  0.3681424419898696  0.0268161548635828
  0.2558022335714007  0.6538858506814570  0.5493987687166501
  0.2564793309929257  0.6702389509604963  0.7588871643433558
  0.2272351462668679  0.5689155526610868  0.6851324850407783
  0.4078487649515022  0.7302219804368278  0.6721955455812736
  0.3768889127393573  0.6359771186583163  0.8123259793656588
  0.3767869481312484  0.6229874270719661  0.5846081317402840
  0.7244005514025914  0.1102138579424780  0.7018412599174432
  0.7841370702500949  0.1053799041737642  0.8704165287047794
  0.7744766503488004  0.0478008090440240  0.6948175841024414
  0.8674040100195477  0.2464210469927078  0.7240472160462953
  0.9186765081173462  0.1790612814541916  0.7029358309260915
  0.8520503977713009  0.1871508946673374  0.5284497468245432
  0.8282939553791134  0.6597281591425532  0.6919560909156683
  0.3396803729527183  0.1786570443202703  0.6899542520396603
  0.6622834419514604  0.3315739767897976  0.1844675526652464
  0.6570740129734244  0.8274158941379595  0.1921622117231016
 
  0.00000000E+00  0.00000000E+00  0.00000000E+00
  0.00000000E+00  0.00000000E+00  0.00000000E+00
  0.00000000E+00  0.00000000E+00  0.00000000E+00
  0.00000000E+00  0.00000000E+00  0.00000000E+00
  0.00000000E+00  0.00000000E+00  0.00000000E+00
  0.00000000E+00  0.00000000E+00  0.00000000E+00
  0.00000000E+00  0.00000000E+00  0.00000000E+00
  0.00000000E+00  0.00000000E+00  0.00000000E+00
  0.00000000E+00  0.00000000E+00  0.00000000E+00
  0.00000000E+00  0.00000000E+00  0.00000000E+00
  0.00000000E+00  0.00000000E+00  0.00000000E+00
  0.00000000E+00  0.00000000E+00  0.00000000E+00
  0.00000000E+00  0.00000000E+00  0.00000000E+00
  0.00000000E+00  0.00000000E+00  0.00000000E+00
  0.00000000E+00  0.00000000E+00  0.00000000E+00
  0.00000000E+00  0.00000000E+00  0.00000000E+00
  0.00000000E+00  0.00000000E+00  0.00000000E+00
  0.00000000E+00  0.00000000E+00  0.00000000E+00
  0.00000000E+00  0.00000000E+00  0.00000000E+00
  0.00000000E+00  0.00000000E+00  0.00000000E+00
  0.00000000E+00  0.00000000E+00  0.00000000E+00
  0.00000000E+00  0.00000000E+00  0.00000000E+00
  0.00000000E+00  0.00000000E+00  0.00000000E+00
  0.00000000E+00  0.00000000E+00  0.00000000E+00
  0.00000000E+00  0.00000000E+00  0.00000000E+00
  0.00000000E+00  0.00000000E+00  0.00000000E+00
  0.00000000E+00  0.00000000E+00  0.00000000E+00
  0.00000000E+00  0.00000000E+00  0.00000000E+00
  0.00000000E+00  0.00000000E+00  0.00000000E+00
  0.00000000E+00  0.00000000E+00  0.00000000E+00
  0.00000000E+00  0.00000000E+00  0.00000000E+00
  0.00000000E+00  0.00000000E+00  0.00000000E+00
  0.00000000E+00  0.00000000E+00  0.00000000E+00
  0.00000000E+00  0.00000000E+00  0.00000000E+00
  0.00000000E+00  0.00000000E+00  0.00000000E+00
  0.00000000E+00  0.00000000E+00  0.00000000E+00
  0.00000000E+00  0.00000000E+00  0.00000000E+00
  0.00000000E+00  0.00000000E+00  0.00000000E+00
  0.00000000E+00  0.00000000E+00  0.00000000E+00
  0.00000000E+00  0.00000000E+00  0.00000000E+00
  0.00000000E+00  0.00000000E+00  0.00000000E+00
  0.00000000E+00  0.00000000E+00  0.00000000E+00
  0.00000000E+00  0.00000000E+00  0.00000000E+00
  0.00000000E+00  0.00000000E+00  0.00000000E+00
  0.00000000E+00  0.00000000E+00  0.00000000E+00
  0.00000000E+00  0.00000000E+00  0.00000000E+00
  0.00000000E+00  0.00000000E+00  0.00000000E+00
  0.00000000E+00  0.00000000E+00  0.00000000E+00
  0.00000000E+00  0.00000000E+00  0.00000000E+00
  0.00000000E+00  0.00000000E+00  0.00000000E+00
  0.00000000E+00  0.00000000E+00  0.00000000E+00
  0.00000000E+00  0.00000000E+00  0.00000000E+00
  0.00000000E+00  0.00000000E+00  0.00000000E+00
  0.00000000E+00  0.00000000E+00  0.00000000E+00
  0.00000000E+00  0.00000000E+00  0.00000000E+00
  0.00000000E+00  0.00000000E+00  0.00000000E+00
  0.00000000E+00  0.00000000E+00  0.00000000E+00
  0.00000000E+00  0.00000000E+00  0.00000000E+00
  0.00000000E+00  0.00000000E+00  0.00000000E+00
  0.00000000E+00  0.00000000E+00  0.00000000E+00
  0.00000000E+00  0.00000000E+00  0.00000000E+00
  0.00000000E+00  0.00000000E+00  0.00000000E+00
  0.00000000E+00  0.00000000E+00  0.00000000E+00
  0.00000000E+00  0.00000000E+00  0.00000000E+00
  0.00000000E+00  0.00000000E+00  0.00000000E+00
  0.00000000E+00  0.00000000E+00  0.00000000E+00
  0.00000000E+00  0.00000000E+00  0.00000000E+00
  0.00000000E+00  0.00000000E+00  0.00000000E+00
