hexa_FA0500MA0500Cs0000                 
   1.00000000000000     
    18.3904404291480361    0.0617111412482030    0.0248114710704858
    -9.1536480745560809   14.6721705057973715   -0.1137685737426727
     0.0110495988209391   -0.0532735611244946    7.7313368919801144
   Pb   I    N    C    H 
     8    24    12     8    44
Direct
  0.5098843495289703  0.4997834107542090  0.9442999390050626
  0.5069581371552807  0.9991410062448536  0.9520869000730808
  0.9993336180594237  0.5058368453609441  0.9538391584593507
  0.0047041263927214  0.0087324187457526  0.9271187841976026
  0.0061710648103043  0.0062012793022318  0.4332767871396610
  0.9994153178996994  0.5089081871078720  0.4524040972880390
  0.5082474333999830  0.0014270225791834  0.4471112489288123
  0.5105465830862627  0.5008523485157229  0.4434860784686440
  0.4408365643286938  0.0993691301807688  0.2007411952832173
  0.4268202434872422  0.5821953038241884  0.1979417471550099
  0.9150400977844764  0.0822561542523138  0.1903522454604789
  0.9304267313928692  0.6048781538098731  0.1997909846662965
  0.4217142953544550  0.3242416181060109  0.1930066404961238
  0.4078016169099350  0.8269242688535544  0.2018608559938196
  0.9045135829084725  0.3315707894305516  0.2141427097345033
  0.9274919963459963  0.8302738324022854  0.1682180684884264
  0.1728739444739744  0.0879303157250981  0.1791799661953676
  0.1625136859144769  0.5838304587179819  0.2045396280033858
  0.6740942111556976  0.0777022971011481  0.2008809601780359
  0.6777262265427427  0.5774614557719280  0.1932561398114039
  0.0843943138230482  0.4271059970117615  0.6952571876074025
  0.0930198332186517  0.9279220007328233  0.6830811172891104
  0.5826115878148420  0.4026722541431379  0.6915550374367837
  0.5874489117975353  0.9105938939913844  0.6948380010016537
  0.0863743047063132  0.1834403776572094  0.6800088441913289
  0.0909004965149274  0.6871511435404988  0.7242825133494992
  0.6071051463932474  0.1783377377929485  0.7146340636606440
  0.6164743882584547  0.6727931906647738  0.7006212568136556
  0.3471996186902638  0.4270513367964505  0.6902263957514155
  0.3436991810431364  0.9258665902186805  0.7005078116366246
  0.8305316337128396  0.4293860697450115  0.7025555353170353
  0.8415910713524557  0.9164415240982035  0.6768694882509326
  0.2223870060888483  0.3225797413656538  0.1866632415403339
  0.7270246446663862  0.8161483225752566  0.1852903187229030
  0.0937356671930715  0.3185516235154938  0.1906734278933012
  0.6015264187563538  0.8185575727728981  0.1893300924669028
  0.2831436215304681  0.1870395399241575  0.6845357869474221
  0.2843307121812998  0.6843338100549963  0.6900103831556202
  0.4003041903838225  0.1691005246144100  0.6872951228823065
  0.4055436171972744  0.6733246804242199  0.6877816922015151
  0.6171396679784673  0.3267793272395892  0.1284851069360998
  0.1286222925705262  0.8397976194631321  0.0942961220016445
  0.7946494538231782  0.6146589326771004  0.7553525934643949
  0.7765139561152383  0.1390507817670613  0.6334357555728146
  0.1774781858770122  0.3617125547029733  0.1891132162985781
  0.6851550204090371  0.8584687238829707  0.1865993947177656
  0.3178307556893533  0.1373917252236915  0.6865289244479371
  0.3223325511945639  0.6380015386579648  0.6897474522089495
  0.7016169893749007  0.3534241218129641  0.2052550476800132
  0.1825126151085455  0.8485029700337940  0.2461266467197500
  0.8684986186002598  0.6923592882281175  0.6659844121660150
  0.8628455629038942  0.1660888199936506  0.7005019836785278
  0.2122756030105225  0.4360922711115225  0.1899228455681861
  0.7228030245805953  0.9328957516098816  0.1854292259442550
  0.2741657698852177  0.0634377552065423  0.6875083142669531
  0.2811147194725098  0.5637203334707215  0.6911726637417072
  0.1958384830842748  0.2532182892363772  0.1859083083483448
  0.6980727253117033  0.7466741609821416  0.1866965179555032
  0.2876270567264031  0.3613147412050802  0.1863107801820085
  0.7924643180601844  0.8523385092568317  0.1829858813554765
  0.0633581609604868  0.3540112616563815  0.1942552904145392
  0.5738189704667682  0.8566179711982231  0.1911724076621655
  0.0545811365498472  0.2488416141862337  0.1909261960973242
  0.5603651844557165  0.7491560551916677  0.1907004127342942
  0.3176486530165665  0.2568375413357162  0.6839405047019625
  0.3162047301925698  0.7540998837792952  0.6891612885788637
  0.2178651564131705  0.1567650105870361  0.6843203456232496
  0.2188788526167703  0.6509645795226977  0.6935401099271309
  0.4205330529304096  0.1242816181766666  0.6890902840752022
  0.4284736116446924  0.6308764658325317  0.6878563389221648
  0.4464346432168183  0.2373120932423879  0.6856214463577230
  0.4497250693920943  0.7421122076934991  0.6865385924196270
  0.6218255505766328  0.3428102259143864  0.9984283836532325
  0.5896041158651385  0.3592661429690583  0.1884925782199738
  0.5724601643001018  0.2568429022367537  0.1390754109167365
  0.7436631357353355  0.4276572526766406  0.2024236302679374
  0.6920360225892634  0.3300264492188622  0.3390846485176401
  0.7297079484521565  0.3217074457230836  0.1295594999869397
  0.1510946015446363  0.9015875017799009  0.0343837663399838
  0.0659785746407356  0.8174494932019858  0.1310501620447153
  0.1250100810767678  0.7936943766871019  0.0007038686283736
  0.1817518281520435  0.8961802559364614  0.3399137959641326
  0.1558191456902420  0.7813840724690673  0.3040382870074532
  0.2479391326769189  0.8739179476199025  0.2023961941390250
  0.7369966804763646  0.6062032038181639  0.7161612476911688
  0.7980841339317855  0.6243247112497886  0.8882047371545777
  0.7930513923890343  0.5539040785736415  0.7309143037880713
  0.8703575265097602  0.7551858470326568  0.6987937279392560
  0.9272325862816332  0.6966065191519996  0.7084593539207417
  0.8604429556985682  0.6795697184932900  0.5261375597211495
  0.7764662522852609  0.1479919158696978  0.5008844845752293
  0.7516615615431207  0.1752921073872300  0.6898703310357582
  0.7312960332664655  0.0705091705991382  0.6552730066437369
  0.9070527868875420  0.2390560709688528  0.6808863710045642
  0.8578518229990927  0.1504712817646739  0.8385018555409670
  0.8850607910611465  0.1270158931912556  0.6300824108018526
 
  0.00000000E+00  0.00000000E+00  0.00000000E+00
  0.00000000E+00  0.00000000E+00  0.00000000E+00
  0.00000000E+00  0.00000000E+00  0.00000000E+00
  0.00000000E+00  0.00000000E+00  0.00000000E+00
  0.00000000E+00  0.00000000E+00  0.00000000E+00
  0.00000000E+00  0.00000000E+00  0.00000000E+00
  0.00000000E+00  0.00000000E+00  0.00000000E+00
  0.00000000E+00  0.00000000E+00  0.00000000E+00
  0.00000000E+00  0.00000000E+00  0.00000000E+00
  0.00000000E+00  0.00000000E+00  0.00000000E+00
  0.00000000E+00  0.00000000E+00  0.00000000E+00
  0.00000000E+00  0.00000000E+00  0.00000000E+00
  0.00000000E+00  0.00000000E+00  0.00000000E+00
  0.00000000E+00  0.00000000E+00  0.00000000E+00
  0.00000000E+00  0.00000000E+00  0.00000000E+00
  0.00000000E+00  0.00000000E+00  0.00000000E+00
  0.00000000E+00  0.00000000E+00  0.00000000E+00
  0.00000000E+00  0.00000000E+00  0.00000000E+00
  0.00000000E+00  0.00000000E+00  0.00000000E+00
  0.00000000E+00  0.00000000E+00  0.00000000E+00
  0.00000000E+00  0.00000000E+00  0.00000000E+00
  0.00000000E+00  0.00000000E+00  0.00000000E+00
  0.00000000E+00  0.00000000E+00  0.00000000E+00
  0.00000000E+00  0.00000000E+00  0.00000000E+00
  0.00000000E+00  0.00000000E+00  0.00000000E+00
  0.00000000E+00  0.00000000E+00  0.00000000E+00
  0.00000000E+00  0.00000000E+00  0.00000000E+00
  0.00000000E+00  0.00000000E+00  0.00000000E+00
  0.00000000E+00  0.00000000E+00  0.00000000E+00
  0.00000000E+00  0.00000000E+00  0.00000000E+00
  0.00000000E+00  0.00000000E+00  0.00000000E+00
  0.00000000E+00  0.00000000E+00  0.00000000E+00
  0.00000000E+00  0.00000000E+00  0.00000000E+00
  0.00000000E+00  0.00000000E+00  0.00000000E+00
  0.00000000E+00  0.00000000E+00  0.00000000E+00
  0.00000000E+00  0.00000000E+00  0.00000000E+00
  0.00000000E+00  0.00000000E+00  0.00000000E+00
  0.00000000E+00  0.00000000E+00  0.00000000E+00
  0.00000000E+00  0.00000000E+00  0.00000000E+00
  0.00000000E+00  0.00000000E+00  0.00000000E+00
  0.00000000E+00  0.00000000E+00  0.00000000E+00
  0.00000000E+00  0.00000000E+00  0.00000000E+00
  0.00000000E+00  0.00000000E+00  0.00000000E+00
  0.00000000E+00  0.00000000E+00  0.00000000E+00
  0.00000000E+00  0.00000000E+00  0.00000000E+00
  0.00000000E+00  0.00000000E+00  0.00000000E+00
  0.00000000E+00  0.00000000E+00  0.00000000E+00
  0.00000000E+00  0.00000000E+00  0.00000000E+00
  0.00000000E+00  0.00000000E+00  0.00000000E+00
  0.00000000E+00  0.00000000E+00  0.00000000E+00
  0.00000000E+00  0.00000000E+00  0.00000000E+00
  0.00000000E+00  0.00000000E+00  0.00000000E+00
  0.00000000E+00  0.00000000E+00  0.00000000E+00
  0.00000000E+00  0.00000000E+00  0.00000000E+00
  0.00000000E+00  0.00000000E+00  0.00000000E+00
  0.00000000E+00  0.00000000E+00  0.00000000E+00
  0.00000000E+00  0.00000000E+00  0.00000000E+00
  0.00000000E+00  0.00000000E+00  0.00000000E+00
  0.00000000E+00  0.00000000E+00  0.00000000E+00
  0.00000000E+00  0.00000000E+00  0.00000000E+00
  0.00000000E+00  0.00000000E+00  0.00000000E+00
  0.00000000E+00  0.00000000E+00  0.00000000E+00
  0.00000000E+00  0.00000000E+00  0.00000000E+00
  0.00000000E+00  0.00000000E+00  0.00000000E+00
  0.00000000E+00  0.00000000E+00  0.00000000E+00
  0.00000000E+00  0.00000000E+00  0.00000000E+00
  0.00000000E+00  0.00000000E+00  0.00000000E+00
  0.00000000E+00  0.00000000E+00  0.00000000E+00
  0.00000000E+00  0.00000000E+00  0.00000000E+00
  0.00000000E+00  0.00000000E+00  0.00000000E+00
  0.00000000E+00  0.00000000E+00  0.00000000E+00
  0.00000000E+00  0.00000000E+00  0.00000000E+00
  0.00000000E+00  0.00000000E+00  0.00000000E+00
  0.00000000E+00  0.00000000E+00  0.00000000E+00
  0.00000000E+00  0.00000000E+00  0.00000000E+00
  0.00000000E+00  0.00000000E+00  0.00000000E+00
  0.00000000E+00  0.00000000E+00  0.00000000E+00
  0.00000000E+00  0.00000000E+00  0.00000000E+00
  0.00000000E+00  0.00000000E+00  0.00000000E+00
  0.00000000E+00  0.00000000E+00  0.00000000E+00
  0.00000000E+00  0.00000000E+00  0.00000000E+00
  0.00000000E+00  0.00000000E+00  0.00000000E+00
  0.00000000E+00  0.00000000E+00  0.00000000E+00
  0.00000000E+00  0.00000000E+00  0.00000000E+00
  0.00000000E+00  0.00000000E+00  0.00000000E+00
  0.00000000E+00  0.00000000E+00  0.00000000E+00
  0.00000000E+00  0.00000000E+00  0.00000000E+00
  0.00000000E+00  0.00000000E+00  0.00000000E+00
  0.00000000E+00  0.00000000E+00  0.00000000E+00
  0.00000000E+00  0.00000000E+00  0.00000000E+00
  0.00000000E+00  0.00000000E+00  0.00000000E+00
  0.00000000E+00  0.00000000E+00  0.00000000E+00
  0.00000000E+00  0.00000000E+00  0.00000000E+00
  0.00000000E+00  0.00000000E+00  0.00000000E+00
  0.00000000E+00  0.00000000E+00  0.00000000E+00
  0.00000000E+00  0.00000000E+00  0.00000000E+00
