cubic_FA0125MA0875Cs0000                
   1.00000000000000     
    12.7315528677428293    0.0891004850968453    0.1232085842708910
     0.0887694487841788   12.7203283230352984   -0.1138056458257879
     0.1227035568141983   -0.1138593393443714   12.6990004161772312
   Cs   I    Pb   C    N    H 
     0    24     8     8     9    47
Direct
  0.0458346603092360  0.0181505145379278  0.2476386341890691
  0.9993609863294752  0.9851898352080608  0.7484651149356500
  0.0365048640423661  0.4735627564480378  0.2521028438075252
  0.9981533487564354  0.5150024609935397  0.7534002704215651
  0.5054157329060678  0.9942639254458500  0.2565498742603148
  0.5370110865056710  0.9905397810727686  0.7577731092668886
  0.5050232813021663  0.4967820843282387  0.2589041392194600
  0.5412918101029666  0.4890835356319821  0.7593763721906210
  0.0059971240662242  0.2514385172376202  0.9767538520703103
  0.0426201515175124  0.2505336402085173  0.5258145855488464
  0.0379057950051227  0.7533876400869046  0.9932754209729383
  0.0169910302910011  0.7517112711219316  0.4820885087028052
  0.5657944570578177  0.2489930434921100  0.0048666993231449
  0.5111192431125552  0.2511484249978479  0.5144534892908568
  0.5016338408494234  0.7506286123726370  0.0015126840766979
  0.5325547424732017  0.7508863321156166  0.5019545299750349
  0.2646892388667792  0.5170753409080464  0.5376974153884974
  0.2702732125513900  0.4823737978607808  0.0060117351936219
  0.2658623589951581  0.9877538305910969  0.5340526166917754
  0.2704145849427407  0.0433259161084929  0.9913437544201499
  0.7638824009544631  0.4907536914858546  0.4866168690632561
  0.7674679881905045  0.5265566379500487  0.0247538749120567
  0.7645966205841874  0.0339920480393938  0.4877994966663387
  0.7679951994446753  0.9863430671196513  0.0300272526756842
  0.5168425654967730  0.0034479620284562  0.0065666086054106
  0.5117352251182985  0.9977389991744421  0.5054785037245551
  0.5147282380782628  0.4966629483278059  0.0079233240556686
  0.5149969917850905  0.5018343592582123  0.5091537427817577
  0.0113964905452484  0.0015186806579142  0.9970274052325941
  0.0105470284653755  0.0041992547125787  0.4976789749200987
  0.0159202659138688  0.5026591507942766  0.0027079739561509
  0.0089503821084951  0.4970521255172542  0.5023302148432536
  0.2345335879590089  0.7604679371274095  0.2581708731705109
  0.2781301555556795  0.2566902353636771  0.2867251968080101
  0.7795481630938117  0.7556753949378964  0.2862856158228249
  0.7872516606751150  0.7551500126389401  0.7522397754653229
  0.2677278978629564  0.2811155543592422  0.7540978582020819
  0.7911168451687902  0.2646996763463161  0.2561143253275721
  0.7924075293841616  0.2857565535335552  0.7414517724158664
  0.2775216321435797  0.7701254500146598  0.7726454976204734
  0.2749899787359682  0.6778715009886348  0.3033351779077367
  0.2677660554574218  0.7997341169270877  0.1689936171309561
  0.2034913926902385  0.2464256547206194  0.1984110710726629
  0.7271279146029307  0.7566425267211911  0.1825149992124367
  0.6725991814668036  0.7366414147238459  0.7433588548531403
  0.2161100535363493  0.1770444648920986  0.7484191181743652
  0.6815816897629301  0.2259686994806442  0.2689742635773916
  0.6963495913861598  0.2201212708830720  0.7382366854391307
  0.1856476385214327  0.7273495706757545  0.7161547801377105
  0.1675121589069340  0.7997435793802630  0.2981561673670060
  0.2439688766663445  0.6526641851137788  0.3731425289266691
  0.3370223299996916  0.6345394288890392  0.2720683884641167
  0.3296143181684340  0.7684086061571268  0.1249635541867005
  0.2302879623399858  0.8639750869603496  0.1396733670342293
  0.1693435460578691  0.3188089836183165  0.1811024627982151
  0.1428073091216950  0.1953464690227978  0.2177876928697897
  0.2389014548593200  0.2148168057740229  0.1304713552647226
  0.2367683646050283  0.2955094817450515  0.3534121416698849
  0.3047093272797641  0.1780387758639725  0.3090496432247163
  0.3447882776126157  0.3041924551981606  0.2612053868535925
  0.6462954143828666  0.7620038153924485  0.1898386501275171
  0.7442997338017723  0.6879820800789628  0.1377733772952032
  0.7501152620778364  0.8208565989199980  0.1375248167569431
  0.7503330734030351  0.6892814147683205  0.3316823181325005
  0.8644630523110101  0.7468389221074413  0.2729224189712203
  0.7617900692307989  0.8298132944581165  0.3285104208974767
  0.6465962328062603  0.7447753018003934  0.6660744328716994
  0.6285516595563158  0.7904537632412326  0.7885778701974987
  0.6511573118110163  0.6612710155453714  0.7657758482438209
  0.8036004415736182  0.8364177062047725  0.7304877323665768
  0.8106437760463818  0.7418058350684853  0.8334292837291608
  0.8299362350257830  0.7001672890235583  0.6989996454035060
  0.1351585792496441  0.1845459399444133  0.7456098938606651
  0.2329457413270370  0.1323614686102978  0.8143642075541117
  0.2393994634050099  0.1328643954386917  0.6815168738913400
  0.2432824966667252  0.3211205384333265  0.8278897208987208
  0.3531056433613386  0.2690146718735134  0.7517494313309386
  0.2436786095031186  0.3275756640316050  0.6866491977089898
  0.6371569692559299  0.2431794354235287  0.2032220664851008
  0.6433858832061349  0.2583473899878796  0.3352935534633649
  0.6794057527432318  0.1450967648432317  0.2777192715141800
  0.7884718291805933  0.3503920444276586  0.2498718242879082
  0.8358508567535214  0.2419634528011415  0.3250872734111010
  0.8260214419018218  0.2289869959861584  0.1842348235470956
  0.6452397998423073  0.2437262533440497  0.6796285712785851
  0.6549019549720194  0.2243627661528304  0.8097919894836674
  0.7136637852484111  0.1416471361406862  0.7225129409378671
  0.7681618779558564  0.3675499825947822  0.7570409620752511
  0.8426681624833662  0.2576924455005257  0.8044414976381401
  0.8339219914928807  0.2787869773425513  0.6652072279309084
  0.1507245757614215  0.7821974897767353  0.6680743548823571
  0.1277333447532803  0.7011245265197191  0.7676822779638613
  0.2078392632286617  0.6631281222677786  0.6673739128354222
  0.2514919375976199  0.8375386873867349  0.8216935909506849
  0.3099034003038242  0.7084581341112771  0.8222190197304761
  0.3363121139399984  0.7947790435792427  0.7143354653789146
 
  0.00000000E+00  0.00000000E+00  0.00000000E+00
  0.00000000E+00  0.00000000E+00  0.00000000E+00
  0.00000000E+00  0.00000000E+00  0.00000000E+00
  0.00000000E+00  0.00000000E+00  0.00000000E+00
  0.00000000E+00  0.00000000E+00  0.00000000E+00
  0.00000000E+00  0.00000000E+00  0.00000000E+00
  0.00000000E+00  0.00000000E+00  0.00000000E+00
  0.00000000E+00  0.00000000E+00  0.00000000E+00
  0.00000000E+00  0.00000000E+00  0.00000000E+00
  0.00000000E+00  0.00000000E+00  0.00000000E+00
  0.00000000E+00  0.00000000E+00  0.00000000E+00
  0.00000000E+00  0.00000000E+00  0.00000000E+00
  0.00000000E+00  0.00000000E+00  0.00000000E+00
  0.00000000E+00  0.00000000E+00  0.00000000E+00
  0.00000000E+00  0.00000000E+00  0.00000000E+00
  0.00000000E+00  0.00000000E+00  0.00000000E+00
  0.00000000E+00  0.00000000E+00  0.00000000E+00
  0.00000000E+00  0.00000000E+00  0.00000000E+00
  0.00000000E+00  0.00000000E+00  0.00000000E+00
  0.00000000E+00  0.00000000E+00  0.00000000E+00
  0.00000000E+00  0.00000000E+00  0.00000000E+00
  0.00000000E+00  0.00000000E+00  0.00000000E+00
  0.00000000E+00  0.00000000E+00  0.00000000E+00
  0.00000000E+00  0.00000000E+00  0.00000000E+00
  0.00000000E+00  0.00000000E+00  0.00000000E+00
  0.00000000E+00  0.00000000E+00  0.00000000E+00
  0.00000000E+00  0.00000000E+00  0.00000000E+00
  0.00000000E+00  0.00000000E+00  0.00000000E+00
  0.00000000E+00  0.00000000E+00  0.00000000E+00
  0.00000000E+00  0.00000000E+00  0.00000000E+00
  0.00000000E+00  0.00000000E+00  0.00000000E+00
  0.00000000E+00  0.00000000E+00  0.00000000E+00
  0.00000000E+00  0.00000000E+00  0.00000000E+00
  0.00000000E+00  0.00000000E+00  0.00000000E+00
  0.00000000E+00  0.00000000E+00  0.00000000E+00
  0.00000000E+00  0.00000000E+00  0.00000000E+00
  0.00000000E+00  0.00000000E+00  0.00000000E+00
  0.00000000E+00  0.00000000E+00  0.00000000E+00
  0.00000000E+00  0.00000000E+00  0.00000000E+00
  0.00000000E+00  0.00000000E+00  0.00000000E+00
  0.00000000E+00  0.00000000E+00  0.00000000E+00
  0.00000000E+00  0.00000000E+00  0.00000000E+00
  0.00000000E+00  0.00000000E+00  0.00000000E+00
  0.00000000E+00  0.00000000E+00  0.00000000E+00
  0.00000000E+00  0.00000000E+00  0.00000000E+00
  0.00000000E+00  0.00000000E+00  0.00000000E+00
  0.00000000E+00  0.00000000E+00  0.00000000E+00
  0.00000000E+00  0.00000000E+00  0.00000000E+00
  0.00000000E+00  0.00000000E+00  0.00000000E+00
  0.00000000E+00  0.00000000E+00  0.00000000E+00
  0.00000000E+00  0.00000000E+00  0.00000000E+00
  0.00000000E+00  0.00000000E+00  0.00000000E+00
  0.00000000E+00  0.00000000E+00  0.00000000E+00
  0.00000000E+00  0.00000000E+00  0.00000000E+00
  0.00000000E+00  0.00000000E+00  0.00000000E+00
  0.00000000E+00  0.00000000E+00  0.00000000E+00
  0.00000000E+00  0.00000000E+00  0.00000000E+00
  0.00000000E+00  0.00000000E+00  0.00000000E+00
  0.00000000E+00  0.00000000E+00  0.00000000E+00
  0.00000000E+00  0.00000000E+00  0.00000000E+00
  0.00000000E+00  0.00000000E+00  0.00000000E+00
  0.00000000E+00  0.00000000E+00  0.00000000E+00
  0.00000000E+00  0.00000000E+00  0.00000000E+00
  0.00000000E+00  0.00000000E+00  0.00000000E+00
  0.00000000E+00  0.00000000E+00  0.00000000E+00
  0.00000000E+00  0.00000000E+00  0.00000000E+00
  0.00000000E+00  0.00000000E+00  0.00000000E+00
  0.00000000E+00  0.00000000E+00  0.00000000E+00
  0.00000000E+00  0.00000000E+00  0.00000000E+00
  0.00000000E+00  0.00000000E+00  0.00000000E+00
  0.00000000E+00  0.00000000E+00  0.00000000E+00
  0.00000000E+00  0.00000000E+00  0.00000000E+00
  0.00000000E+00  0.00000000E+00  0.00000000E+00
  0.00000000E+00  0.00000000E+00  0.00000000E+00
  0.00000000E+00  0.00000000E+00  0.00000000E+00
  0.00000000E+00  0.00000000E+00  0.00000000E+00
  0.00000000E+00  0.00000000E+00  0.00000000E+00
  0.00000000E+00  0.00000000E+00  0.00000000E+00
  0.00000000E+00  0.00000000E+00  0.00000000E+00
  0.00000000E+00  0.00000000E+00  0.00000000E+00
  0.00000000E+00  0.00000000E+00  0.00000000E+00
  0.00000000E+00  0.00000000E+00  0.00000000E+00
  0.00000000E+00  0.00000000E+00  0.00000000E+00
  0.00000000E+00  0.00000000E+00  0.00000000E+00
  0.00000000E+00  0.00000000E+00  0.00000000E+00
  0.00000000E+00  0.00000000E+00  0.00000000E+00
  0.00000000E+00  0.00000000E+00  0.00000000E+00
  0.00000000E+00  0.00000000E+00  0.00000000E+00
  0.00000000E+00  0.00000000E+00  0.00000000E+00
  0.00000000E+00  0.00000000E+00  0.00000000E+00
  0.00000000E+00  0.00000000E+00  0.00000000E+00
  0.00000000E+00  0.00000000E+00  0.00000000E+00
  0.00000000E+00  0.00000000E+00  0.00000000E+00
  0.00000000E+00  0.00000000E+00  0.00000000E+00
  0.00000000E+00  0.00000000E+00  0.00000000E+00
  0.00000000E+00  0.00000000E+00  0.00000000E+00
