cubic_FA0500MA0250Cs0250                
   1.00000000000000     
    12.6387385041154179   -0.1676020441805210    0.3284006470869169
    -0.1654040600895011   12.7790490861488681   -0.0954236569838715
     0.3249559823181115   -0.0958474539675655   12.6505809846979087
   Cs   I    Pb   C    N    H 
     2    24     8     6    10    32
Direct
  0.7405018154811951  0.2659535333212911  0.2363340525814736
  0.7468266246080322  0.7322568725134400  0.7284535752037767
  0.9430263860075281  0.0207521026677471  0.2516389426687573
  0.0457069904518446  0.9933178558931091  0.7458943466791595
  0.0403804003706069  0.4854240376745272  0.2469157053113764
  0.9601802029306032  0.5037005271855093  0.7506303659574406
  0.5350592195293808  0.9871165336664788  0.2372785343510101
  0.4408627631640466  0.0001237493549150  0.7434111703372622
  0.4850856345330053  0.5022047371909097  0.2466762926720872
  0.5459854783941095  0.4933333402620098  0.7436717672491296
 -0.0094109009743189  0.2464417167381954  0.0043563086758654
  0.0324317404167578  0.2494345156413179  0.5107450709943940
  0.0235873483856680  0.7487239152021264 -0.0028391532875447
  0.9804780276434016  0.7494664512693996  0.4983913460183898
  0.5505382974868942  0.2430280622236123  0.0026084386768995
  0.5051273102264102  0.2419278179842906  0.4664768376084925
  0.4964832354545620  0.7410580905967927  0.9845349744081423
  0.5338127429019675  0.7445447334207457  0.5054868365599968
  0.2566800072032245  0.5162132163864113  0.5346220523264555
  0.2586806267326796  0.4552561096931884  0.9585664581680809
  0.2506718333853927 -0.0034953017754331  0.4449975749392072
  0.2496647949549868  0.0157644751389544  0.0370183923026679
  0.7599262056920245  0.4751737324902500  0.4633074747437343
  0.7588147612782409  0.5132040319632314  0.0367692196289608
  0.7489385741471318  0.0038168758974811  0.5570101275723166
  0.7541612830801300  0.9625435510265948  0.9404911352418571
  0.5065613801738525 -0.0005657543760110  0.9836582645353880
  0.4980079144900147  0.9943024839596339  0.4985399951098011
  0.5031369260925782  0.4877741545657197  0.9947136963937021
  0.5085444468818862  0.4972465640709894  0.4927675296266102
  0.9937021341127596  0.9920862123095452  0.0000239834157415
 -0.0022876959712195  0.0010873182448498  0.4939991563614553
  0.0115128761571302  0.5025596691012146  0.9955580471636732
  0.0045166290492869  0.4953046815220435  0.5012649166579197
  0.7551114811921882  0.2701184258593939  0.7582128389452245
  0.2438254780347681  0.7317135948780326  0.2555247905213816
  0.7587611717235342  0.7629877805324693  0.2593052260937459
  0.2578606808854272  0.7651360569730022  0.7553404007646805
  0.2931326747481197  0.2626602317603964  0.7303443790622544
  0.2790884197954204  0.2881719823376583  0.2498298438328881
  0.8252439072760280  0.2014540293073485  0.7821917208624389
  0.6926750754022002  0.2601228212781331  0.6788816230343107
  0.3465294149275001  0.7458531795930787  0.2605497193693317
  0.1779759296481304  0.8040098708895284  0.2300098112778803
  0.8300736131910637  0.6919041837726064  0.2714964146924156
  0.6937989448337251  0.7632571057156358  0.1817845353136774
  0.3260703459871488  0.6931514609542145  0.7747460874307989
  0.1996887433722294  0.7646896331223674  0.6723219745766427
  0.1776676927184279  0.2432031356747066  0.7537996413926440
  0.2057536033217704  0.1949160542899075  0.2507504894049300
  0.7486054383017412  0.3409474288456739  0.8073507372036868
  0.8697799964242546  0.2143008124613903  0.8469200644624250
  0.8330936913151669  0.1320023531173698  0.7416931397434159
  0.6946417999151470  0.1961897930623318  0.6288596208863495
  0.6398896581947983  0.3175622968630669  0.6670628321773659
  0.2097658182706185  0.6541240909879522  0.2742798854982948
  0.3920181567204524  0.6825839374018168  0.2750157084449273
  0.3852649864724498  0.8156570857778226  0.2438837746431935
  0.2035122036138501  0.8759475261177121  0.2026202344939557
  0.1001926859411921  0.7844374237809882  0.2222398216597309
  0.7533217114090288  0.8268472069034472  0.3176306116006846
  0.8759555808188183  0.6968588127709214  0.3360165502475682
  0.8375360384160891  0.6283290778841513  0.2217376824306707
  0.6940264659630667  0.7056850254658900  0.1245096206586213
  0.6407780442727452  0.8225054137451195  0.1791868715628152
  0.2485939037571104  0.8300184592833517  0.8120431695425727
  0.3717104504475378  0.7015358319944978  0.8394517217240599
  0.3387119234395712  0.6305227658648638  0.7249199420580515
  0.2041000902646956  0.7057855448499472  0.6163636062504949
  0.1464204805527264  0.8226325210255576  0.6653314681532632
  0.1330922267745263  0.2684863704048082  0.6923826592899929
  0.1515638407141339  0.2803983979997959  0.8234070132549596
  0.1585045096351732  0.1635139510346823  0.7614274167858458
  0.3073487164944514  0.3470100193885084  0.7217077768751601
  0.3367844570087952  0.2335655422064643  0.7959207713178050
  0.3167430709303569  0.2210748102036504  0.6569173249417313
  0.1273595433980353  0.2158438925591274  0.2546799929195488
  0.2170031023764226  0.1470113371306636  0.3153287703826939
  0.2183945044906929  0.1481016317068408  0.1826198673680859
  0.2618467596291489  0.3353493017027963  0.3213082240462903
  0.3606034175590089  0.2611588584557717  0.2487936481866159
  0.2666917200024309  0.3339290493259244  0.1792024826319901
 
  0.00000000E+00  0.00000000E+00  0.00000000E+00
  0.00000000E+00  0.00000000E+00  0.00000000E+00
  0.00000000E+00  0.00000000E+00  0.00000000E+00
  0.00000000E+00  0.00000000E+00  0.00000000E+00
  0.00000000E+00  0.00000000E+00  0.00000000E+00
  0.00000000E+00  0.00000000E+00  0.00000000E+00
  0.00000000E+00  0.00000000E+00  0.00000000E+00
  0.00000000E+00  0.00000000E+00  0.00000000E+00
  0.00000000E+00  0.00000000E+00  0.00000000E+00
  0.00000000E+00  0.00000000E+00  0.00000000E+00
  0.00000000E+00  0.00000000E+00  0.00000000E+00
  0.00000000E+00  0.00000000E+00  0.00000000E+00
  0.00000000E+00  0.00000000E+00  0.00000000E+00
  0.00000000E+00  0.00000000E+00  0.00000000E+00
  0.00000000E+00  0.00000000E+00  0.00000000E+00
  0.00000000E+00  0.00000000E+00  0.00000000E+00
  0.00000000E+00  0.00000000E+00  0.00000000E+00
  0.00000000E+00  0.00000000E+00  0.00000000E+00
  0.00000000E+00  0.00000000E+00  0.00000000E+00
  0.00000000E+00  0.00000000E+00  0.00000000E+00
  0.00000000E+00  0.00000000E+00  0.00000000E+00
  0.00000000E+00  0.00000000E+00  0.00000000E+00
  0.00000000E+00  0.00000000E+00  0.00000000E+00
  0.00000000E+00  0.00000000E+00  0.00000000E+00
  0.00000000E+00  0.00000000E+00  0.00000000E+00
  0.00000000E+00  0.00000000E+00  0.00000000E+00
  0.00000000E+00  0.00000000E+00  0.00000000E+00
  0.00000000E+00  0.00000000E+00  0.00000000E+00
  0.00000000E+00  0.00000000E+00  0.00000000E+00
  0.00000000E+00  0.00000000E+00  0.00000000E+00
  0.00000000E+00  0.00000000E+00  0.00000000E+00
  0.00000000E+00  0.00000000E+00  0.00000000E+00
  0.00000000E+00  0.00000000E+00  0.00000000E+00
  0.00000000E+00  0.00000000E+00  0.00000000E+00
  0.00000000E+00  0.00000000E+00  0.00000000E+00
  0.00000000E+00  0.00000000E+00  0.00000000E+00
  0.00000000E+00  0.00000000E+00  0.00000000E+00
  0.00000000E+00  0.00000000E+00  0.00000000E+00
  0.00000000E+00  0.00000000E+00  0.00000000E+00
  0.00000000E+00  0.00000000E+00  0.00000000E+00
  0.00000000E+00  0.00000000E+00  0.00000000E+00
  0.00000000E+00  0.00000000E+00  0.00000000E+00
  0.00000000E+00  0.00000000E+00  0.00000000E+00
  0.00000000E+00  0.00000000E+00  0.00000000E+00
  0.00000000E+00  0.00000000E+00  0.00000000E+00
  0.00000000E+00  0.00000000E+00  0.00000000E+00
  0.00000000E+00  0.00000000E+00  0.00000000E+00
  0.00000000E+00  0.00000000E+00  0.00000000E+00
  0.00000000E+00  0.00000000E+00  0.00000000E+00
  0.00000000E+00  0.00000000E+00  0.00000000E+00
  0.00000000E+00  0.00000000E+00  0.00000000E+00
  0.00000000E+00  0.00000000E+00  0.00000000E+00
  0.00000000E+00  0.00000000E+00  0.00000000E+00
  0.00000000E+00  0.00000000E+00  0.00000000E+00
  0.00000000E+00  0.00000000E+00  0.00000000E+00
  0.00000000E+00  0.00000000E+00  0.00000000E+00
  0.00000000E+00  0.00000000E+00  0.00000000E+00
  0.00000000E+00  0.00000000E+00  0.00000000E+00
  0.00000000E+00  0.00000000E+00  0.00000000E+00
  0.00000000E+00  0.00000000E+00  0.00000000E+00
  0.00000000E+00  0.00000000E+00  0.00000000E+00
  0.00000000E+00  0.00000000E+00  0.00000000E+00
  0.00000000E+00  0.00000000E+00  0.00000000E+00
  0.00000000E+00  0.00000000E+00  0.00000000E+00
  0.00000000E+00  0.00000000E+00  0.00000000E+00
  0.00000000E+00  0.00000000E+00  0.00000000E+00
  0.00000000E+00  0.00000000E+00  0.00000000E+00
  0.00000000E+00  0.00000000E+00  0.00000000E+00
  0.00000000E+00  0.00000000E+00  0.00000000E+00
  0.00000000E+00  0.00000000E+00  0.00000000E+00
  0.00000000E+00  0.00000000E+00  0.00000000E+00
  0.00000000E+00  0.00000000E+00  0.00000000E+00
  0.00000000E+00  0.00000000E+00  0.00000000E+00
  0.00000000E+00  0.00000000E+00  0.00000000E+00
  0.00000000E+00  0.00000000E+00  0.00000000E+00
  0.00000000E+00  0.00000000E+00  0.00000000E+00
  0.00000000E+00  0.00000000E+00  0.00000000E+00
  0.00000000E+00  0.00000000E+00  0.00000000E+00
  0.00000000E+00  0.00000000E+00  0.00000000E+00
  0.00000000E+00  0.00000000E+00  0.00000000E+00
  0.00000000E+00  0.00000000E+00  0.00000000E+00
  0.00000000E+00  0.00000000E+00  0.00000000E+00
