ortho_FA0375MA0250Cs0375                
   1.00000000000000     
    11.3676405704764623    0.0030972785272033    0.2165604359005019
    -0.0031973832285417    9.4257415179468769   -0.0885697658743870
     0.3601692447233901   -0.1764549184983568   18.9041811965643269
   Pb   I    Cs   C    N    H 
     8    24     3     5     8    27
Direct
  0.1779045144029141  0.1222119889048522  0.4422661832844152
  0.1651153118363235  0.6286415727626601  0.4502818048932530
  0.8489577561432773  0.3870576246750598  0.5611469817148786
  0.8442307656712394  0.8814836876543596  0.5654545568849713
  0.3351639638138271  0.3771409145901528  0.9288981504868828
  0.3527936565899985  0.8683677463972254  0.9301221087216023
  0.6541363252847929  0.1343725865305430  0.0404622623468629
  0.6484896049553430  0.6146812975444020  0.0465898632830345
  0.1759434209193942  0.1174379870664642  0.9969556018149429
  0.1618519414822027  0.6312245453648939  0.9878289934690285
  0.8278493561001596  0.3794101955347469  0.9770994689601312
  0.8218205551768858  0.8652191977624025  0.9869043390513395
  0.3378092433241834  0.3804099039226067  0.5063143385814978
  0.3515975737265246  0.8736390787233159  0.4996246403510374
  0.6774023378296222  0.1367768002014240  0.5124593092855746
  0.6832721159544635  0.6291807260165329  0.5017624739382636
  0.3133241375691397  0.1120265007336988  0.2951335054916324
  0.2703928316043896  0.6322917616999572  0.2980854443041449
  0.6974487709579665  0.4033913814679802  0.7049957608978977
  0.7084368848566042  0.8821414169913562  0.7109774816694054
  0.2246320721977131  0.3770979415962651  0.7802541485078839
  0.2413113195816893  0.8725341811991384  0.7816305771213296
  0.7826598177341765  0.1501949727894761  0.1827033734423605
  0.7486505562460410  0.6202615724487486  0.1978742144566073
  0.0384258247471427  0.1309400365112683  0.6019969362544240
  0.0304154218796296  0.6386664139866299  0.6144643459902208
  0.9912811481721824  0.3703314816802523  0.4020352658771459
  0.9865303810225725  0.8781203131421748  0.4016930885352831
  0.4596898386434495  0.3738809953961587  0.0907275363896224
  0.4770377960831529  0.8809953798605158  0.0913003355362298
  0.5273464041590172  0.1271569602140105  0.8815583873044729
  0.5297702804586794  0.6150117794266681  0.8833985063914325
  0.4392907790715635  0.1313275794652234  0.6689050110964253
  0.4373420808404105  0.6332369495483938  0.6620250885311659
  0.9337623405121016  0.6310079435930563  0.8158651971243099
  0.0777444691677595  0.8640304033641280  0.1849743901792771
  0.5745190657841601  0.3706016433864387  0.3469114948031353
  0.9029597874820008  0.1208919854775256  0.8264334712161497
  0.0943100268619362  0.3841904697573585  0.1860313351497061
  0.6404188666642261  0.9096368943155946  0.3379074797469305
  0.1843521259602437  0.8914869122569794  0.1597730418223694
  0.9852042718849127  0.8472376665603453  0.1463059470344427
  0.6835413344326718  0.3242820250272267  0.3458364957399179
  0.5220433901877979  0.4185786789345975  0.2914751214016290
  0.9838305769544959  0.0429533826190012  0.8548290264281847
  0.9233335553464493  0.2075814176247298  0.7738935531440743
  0.0271686220895850  0.3522947559139336  0.1215429760110157
  0.5233023823230464  0.8433029211733765  0.3276090757802105
  0.0658078105611327  0.8546451327049842  0.2424738318976963
  0.2499552524618044  0.9096028148338707  0.1944223938173784
  0.2034285490045928  0.9041577732872448  0.1069115628609502
  0.9874362779756111  0.8565946512233945  0.0923626683286159
  0.9054003979970148  0.8210200095122140  0.1697205406583066
  0.5236714501205532  0.3696036833587300  0.3974133947581791
  0.7166155804159167  0.2865551438906794  0.3914715596686642
  0.7336632572234063  0.3155477213374926  0.2996432680792741
  0.5645636025898048  0.4249362425064866  0.2428833143764660
  0.4360446498647458  0.4530081615625011  0.2961859417392735
  0.8126050432157909  0.1130174337962778  0.8481097235229129
  0.9611508846241162  0.9873169291584334  0.8994839968484852
  0.0702900304333075  0.0412110382489821  0.8367833496986817
  0.0053381606988295  0.2177582993328034  0.7501401598151445
  0.8532207774564847  0.2566297604283200  0.7510872640412752
  0.0101137576091496  0.4421688102760225  0.0930885405216405
  0.9462091708282979  0.3035751449199854  0.1346730760094301
  0.0735065847594917  0.2829734653359801  0.0867764303135759
  0.0423334651717982  0.4563220927800025  0.2209275345795715
  0.1105025043505500  0.2849577622803872  0.2134639470274456
  0.1784349001840436  0.4333794634769537  0.1705226838519731
  0.4656983326045782  0.9127278364868933  0.3032494349652001
  0.4807962086732769  0.8198771732538942  0.3758501126470574
  0.5298641497184219  0.7510583162382485  0.2974231289464651
  0.6265318461383381  0.0141805244199348  0.3629913081776368
  0.6909396839386650  0.8422156748080001  0.3723934572401618
  0.6862184746871851  0.9194772881241944  0.2861702587136378
 
  0.00000000E+00  0.00000000E+00  0.00000000E+00
  0.00000000E+00  0.00000000E+00  0.00000000E+00
  0.00000000E+00  0.00000000E+00  0.00000000E+00
  0.00000000E+00  0.00000000E+00  0.00000000E+00
  0.00000000E+00  0.00000000E+00  0.00000000E+00
  0.00000000E+00  0.00000000E+00  0.00000000E+00
  0.00000000E+00  0.00000000E+00  0.00000000E+00
  0.00000000E+00  0.00000000E+00  0.00000000E+00
  0.00000000E+00  0.00000000E+00  0.00000000E+00
  0.00000000E+00  0.00000000E+00  0.00000000E+00
  0.00000000E+00  0.00000000E+00  0.00000000E+00
  0.00000000E+00  0.00000000E+00  0.00000000E+00
  0.00000000E+00  0.00000000E+00  0.00000000E+00
  0.00000000E+00  0.00000000E+00  0.00000000E+00
  0.00000000E+00  0.00000000E+00  0.00000000E+00
  0.00000000E+00  0.00000000E+00  0.00000000E+00
  0.00000000E+00  0.00000000E+00  0.00000000E+00
  0.00000000E+00  0.00000000E+00  0.00000000E+00
  0.00000000E+00  0.00000000E+00  0.00000000E+00
  0.00000000E+00  0.00000000E+00  0.00000000E+00
  0.00000000E+00  0.00000000E+00  0.00000000E+00
  0.00000000E+00  0.00000000E+00  0.00000000E+00
  0.00000000E+00  0.00000000E+00  0.00000000E+00
  0.00000000E+00  0.00000000E+00  0.00000000E+00
  0.00000000E+00  0.00000000E+00  0.00000000E+00
  0.00000000E+00  0.00000000E+00  0.00000000E+00
  0.00000000E+00  0.00000000E+00  0.00000000E+00
  0.00000000E+00  0.00000000E+00  0.00000000E+00
  0.00000000E+00  0.00000000E+00  0.00000000E+00
  0.00000000E+00  0.00000000E+00  0.00000000E+00
  0.00000000E+00  0.00000000E+00  0.00000000E+00
  0.00000000E+00  0.00000000E+00  0.00000000E+00
  0.00000000E+00  0.00000000E+00  0.00000000E+00
  0.00000000E+00  0.00000000E+00  0.00000000E+00
  0.00000000E+00  0.00000000E+00  0.00000000E+00
  0.00000000E+00  0.00000000E+00  0.00000000E+00
  0.00000000E+00  0.00000000E+00  0.00000000E+00
  0.00000000E+00  0.00000000E+00  0.00000000E+00
  0.00000000E+00  0.00000000E+00  0.00000000E+00
  0.00000000E+00  0.00000000E+00  0.00000000E+00
  0.00000000E+00  0.00000000E+00  0.00000000E+00
  0.00000000E+00  0.00000000E+00  0.00000000E+00
  0.00000000E+00  0.00000000E+00  0.00000000E+00
  0.00000000E+00  0.00000000E+00  0.00000000E+00
  0.00000000E+00  0.00000000E+00  0.00000000E+00
  0.00000000E+00  0.00000000E+00  0.00000000E+00
  0.00000000E+00  0.00000000E+00  0.00000000E+00
  0.00000000E+00  0.00000000E+00  0.00000000E+00
  0.00000000E+00  0.00000000E+00  0.00000000E+00
  0.00000000E+00  0.00000000E+00  0.00000000E+00
  0.00000000E+00  0.00000000E+00  0.00000000E+00
  0.00000000E+00  0.00000000E+00  0.00000000E+00
  0.00000000E+00  0.00000000E+00  0.00000000E+00
  0.00000000E+00  0.00000000E+00  0.00000000E+00
  0.00000000E+00  0.00000000E+00  0.00000000E+00
  0.00000000E+00  0.00000000E+00  0.00000000E+00
  0.00000000E+00  0.00000000E+00  0.00000000E+00
  0.00000000E+00  0.00000000E+00  0.00000000E+00
  0.00000000E+00  0.00000000E+00  0.00000000E+00
  0.00000000E+00  0.00000000E+00  0.00000000E+00
  0.00000000E+00  0.00000000E+00  0.00000000E+00
  0.00000000E+00  0.00000000E+00  0.00000000E+00
  0.00000000E+00  0.00000000E+00  0.00000000E+00
  0.00000000E+00  0.00000000E+00  0.00000000E+00
  0.00000000E+00  0.00000000E+00  0.00000000E+00
  0.00000000E+00  0.00000000E+00  0.00000000E+00
  0.00000000E+00  0.00000000E+00  0.00000000E+00
  0.00000000E+00  0.00000000E+00  0.00000000E+00
  0.00000000E+00  0.00000000E+00  0.00000000E+00
  0.00000000E+00  0.00000000E+00  0.00000000E+00
  0.00000000E+00  0.00000000E+00  0.00000000E+00
  0.00000000E+00  0.00000000E+00  0.00000000E+00
  0.00000000E+00  0.00000000E+00  0.00000000E+00
  0.00000000E+00  0.00000000E+00  0.00000000E+00
  0.00000000E+00  0.00000000E+00  0.00000000E+00
