ortho_FA0625MA0125Cs0250                
   1.00000000000000     
    11.6117787463591569   -0.1374981257663628    0.1461595146678910
    -0.1358086018539495    9.4488046441216849   -0.1200565506611057
     0.2468986729813754   -0.2044837459162186   18.7632418579663600
   Pb   I    Cs   C    N    H 
     8    24     2     6    11    31
Direct
  0.1618481960127231  0.1206062066166825  0.4378064535776102
  0.1547947077101703  0.6371410760018277  0.4267436404685071
  0.8442225425777572  0.3722727891286127  0.5434357170171734
  0.8484155222702126  0.8726271001993162  0.5527649159612658
  0.3374389013921892  0.3724188139011067  0.9370175872944796
  0.3596679387880629  0.8705535095946435  0.9475104625303197
  0.6603431757736978  0.1347085734946990  0.0605213838924281
  0.6527004748386166  0.6169218457927756  0.0580691486263689
  0.1815656818386507  0.1153169077068522  0.0000851381936921
  0.1783512070659670  0.6243020406700711  0.0030131569011180
  0.8391743483510666  0.3874746148725187  0.0007717264099227
  0.8060350501298144  0.8727548765929863  0.9916869699004203
  0.3262431841076632  0.4014980655706432  0.4822860300239286
  0.3278432987566073  0.8744975022364192  0.4879585145647999
  0.6702296364744333  0.1064479591716036  0.4935378898748584
  0.6900129223960473  0.6299629725985834  0.4813955071056726
  0.2842383830979726  0.1175383165554557  0.2888203571156131
  0.2784362790199630  0.6259157134828764  0.2798016506343947
  0.7149976142276008  0.3794440237589242  0.6872327122379319
  0.7457080446475789  0.8488186318091160  0.7080404650746426
  0.2070616801610303  0.3793961356299429  0.7939644076072955
  0.2523151840211159  0.8651129644450570  0.8012677775279015
  0.7809787777998551  0.1267195611043543  0.2051765596700571
  0.7726966159322458  0.6366663980045577  0.2054789982295956
  0.0234710378019088  0.1421396116518475  0.6006055247643394
  0.0201054561255379  0.6239346973446086  0.5930505488675790
  0.9880784263919900  0.3590824060038612  0.3803941858785339
  0.9745879799093158  0.8846662371159649  0.3871520202380647
  0.4654386134208188  0.3706528244431033  0.1015486431940785
  0.4879728607527473  0.8790285172333306  0.1114412146521717
  0.5353684277955383  0.1335059141879747  0.8973747310683308
  0.5337277977609941  0.6161343728849906  0.8936509323262953
  0.5597208382311960  0.8699561585735793  0.3237722974968509
  0.0669117436830304  0.3766450840799140  0.1683112425467103
  0.5822838467689642  0.3378036513703854  0.3379295221542986
  0.0809669806527796  0.9086936280981713  0.1746870490129998
  0.9133288910641263  0.0985678827887148  0.8420922832970744
  0.4123868635271448  0.1325603522758034  0.6797155276338021
  0.4158371175086484  0.6467598744872453  0.6745328998681287
  0.9679351250239523  0.6746641025654417  0.8313600047902606
  0.6898640171555327  0.3823155963775684  0.3331786829492988
  0.4978206823574517  0.3870888521258388  0.3014125566624488
  0.1839805893036226  0.8649570739596936  0.1565686312811105
  0.9893604376205194  0.8934230104486647  0.1355155602701451
  0.0223212522216283  0.0872241154646527  0.8241807954785628
  0.8394796018845585  0.1761474607755489  0.8093019383048139
  0.4910621208084431  0.0563911559451726  0.7084909376152434
  0.4169000585274353  0.1756755183440440  0.6137208885660163
  0.5135024999357118  0.6352458077280206  0.6386635377251068
  0.3137458426506128  0.6105995194864087  0.6504289229291986
  0.8770036278061567  0.5603852518091378  0.8269847707544952
  0.5608106327315902  0.2544756123520490  0.3758888576496328
  0.7519002366174730  0.3357888087515166  0.3614793181246265
  0.7172103579980053  0.4575063270815570  0.2968563773431550
  0.5093418646424349  0.4630667298392123  0.2640525008737643
  0.4166594620430294  0.3421109374514562  0.3067608034816234
  0.0710110170780324  0.9623572602450294  0.2267220765328682
  0.2491306564076304  0.8802499410346410  0.1916922221760503
  0.2000235407599785  0.8068315897901488  0.1105890499996599
  0.9902115604779994  0.8486242049499173  0.0853904771880430
  0.9130510083391697  0.9358965746306137  0.1538860166876864
  0.8804080039775362  0.0388823303468451  0.8880157645309564
  0.0753279178535871  0.0281338735202516  0.8537549820122438
  0.0636838131176947  0.1492828849685189  0.7868134429210519
  0.8558385085227982  0.2222215300046367  0.7609351560128726
  0.7547551499016928  0.1718805936245623  0.8254953865286654
  0.3382936734705680  0.1630295476624095  0.7135104953362937
  0.4809615769019894  0.0310588255839783  0.7609794407062701
  0.5660578505603470  0.0258906440867719  0.6831229322233300
  0.4844528604437711  0.1530132528557852  0.5791315325391612
  0.3532384552277676  0.2359971106781470  0.5946015147573528
  0.4184907957117793  0.6909756322984809  0.7289164299640895
  0.5888393577592034  0.6701955108484322  0.6617700499151351
  0.5202125272344327  0.5984397525770787  0.5869940123446532
  0.3023906185391309  0.5651753415347901  0.6007445320778849
  0.2431825783911960  0.6229477445384973  0.6831943465885720
  0.7986617307030198  0.6000972981011842  0.8125662228555727
  0.8647470097237165  0.5090109376733275  0.8755327777698452
  0.8972441885152427  0.4853738510140724  0.7880694444201174
  0.9420900911511535  0.7494480082059111  0.8739440267125806
  0.0499747299828023  0.6271983597291693  0.8435185860340531
  0.9739747465807181  0.7270785995223163  0.7799367132230015
 
  0.00000000E+00  0.00000000E+00  0.00000000E+00
  0.00000000E+00  0.00000000E+00  0.00000000E+00
  0.00000000E+00  0.00000000E+00  0.00000000E+00
  0.00000000E+00  0.00000000E+00  0.00000000E+00
  0.00000000E+00  0.00000000E+00  0.00000000E+00
  0.00000000E+00  0.00000000E+00  0.00000000E+00
  0.00000000E+00  0.00000000E+00  0.00000000E+00
  0.00000000E+00  0.00000000E+00  0.00000000E+00
  0.00000000E+00  0.00000000E+00  0.00000000E+00
  0.00000000E+00  0.00000000E+00  0.00000000E+00
  0.00000000E+00  0.00000000E+00  0.00000000E+00
  0.00000000E+00  0.00000000E+00  0.00000000E+00
  0.00000000E+00  0.00000000E+00  0.00000000E+00
  0.00000000E+00  0.00000000E+00  0.00000000E+00
  0.00000000E+00  0.00000000E+00  0.00000000E+00
  0.00000000E+00  0.00000000E+00  0.00000000E+00
  0.00000000E+00  0.00000000E+00  0.00000000E+00
  0.00000000E+00  0.00000000E+00  0.00000000E+00
  0.00000000E+00  0.00000000E+00  0.00000000E+00
  0.00000000E+00  0.00000000E+00  0.00000000E+00
  0.00000000E+00  0.00000000E+00  0.00000000E+00
  0.00000000E+00  0.00000000E+00  0.00000000E+00
  0.00000000E+00  0.00000000E+00  0.00000000E+00
  0.00000000E+00  0.00000000E+00  0.00000000E+00
  0.00000000E+00  0.00000000E+00  0.00000000E+00
  0.00000000E+00  0.00000000E+00  0.00000000E+00
  0.00000000E+00  0.00000000E+00  0.00000000E+00
  0.00000000E+00  0.00000000E+00  0.00000000E+00
  0.00000000E+00  0.00000000E+00  0.00000000E+00
  0.00000000E+00  0.00000000E+00  0.00000000E+00
  0.00000000E+00  0.00000000E+00  0.00000000E+00
  0.00000000E+00  0.00000000E+00  0.00000000E+00
  0.00000000E+00  0.00000000E+00  0.00000000E+00
  0.00000000E+00  0.00000000E+00  0.00000000E+00
  0.00000000E+00  0.00000000E+00  0.00000000E+00
  0.00000000E+00  0.00000000E+00  0.00000000E+00
  0.00000000E+00  0.00000000E+00  0.00000000E+00
  0.00000000E+00  0.00000000E+00  0.00000000E+00
  0.00000000E+00  0.00000000E+00  0.00000000E+00
  0.00000000E+00  0.00000000E+00  0.00000000E+00
  0.00000000E+00  0.00000000E+00  0.00000000E+00
  0.00000000E+00  0.00000000E+00  0.00000000E+00
  0.00000000E+00  0.00000000E+00  0.00000000E+00
  0.00000000E+00  0.00000000E+00  0.00000000E+00
  0.00000000E+00  0.00000000E+00  0.00000000E+00
  0.00000000E+00  0.00000000E+00  0.00000000E+00
  0.00000000E+00  0.00000000E+00  0.00000000E+00
  0.00000000E+00  0.00000000E+00  0.00000000E+00
  0.00000000E+00  0.00000000E+00  0.00000000E+00
  0.00000000E+00  0.00000000E+00  0.00000000E+00
  0.00000000E+00  0.00000000E+00  0.00000000E+00
  0.00000000E+00  0.00000000E+00  0.00000000E+00
  0.00000000E+00  0.00000000E+00  0.00000000E+00
  0.00000000E+00  0.00000000E+00  0.00000000E+00
  0.00000000E+00  0.00000000E+00  0.00000000E+00
  0.00000000E+00  0.00000000E+00  0.00000000E+00
  0.00000000E+00  0.00000000E+00  0.00000000E+00
  0.00000000E+00  0.00000000E+00  0.00000000E+00
  0.00000000E+00  0.00000000E+00  0.00000000E+00
  0.00000000E+00  0.00000000E+00  0.00000000E+00
  0.00000000E+00  0.00000000E+00  0.00000000E+00
  0.00000000E+00  0.00000000E+00  0.00000000E+00
  0.00000000E+00  0.00000000E+00  0.00000000E+00
  0.00000000E+00  0.00000000E+00  0.00000000E+00
  0.00000000E+00  0.00000000E+00  0.00000000E+00
  0.00000000E+00  0.00000000E+00  0.00000000E+00
  0.00000000E+00  0.00000000E+00  0.00000000E+00
  0.00000000E+00  0.00000000E+00  0.00000000E+00
  0.00000000E+00  0.00000000E+00  0.00000000E+00
  0.00000000E+00  0.00000000E+00  0.00000000E+00
  0.00000000E+00  0.00000000E+00  0.00000000E+00
  0.00000000E+00  0.00000000E+00  0.00000000E+00
  0.00000000E+00  0.00000000E+00  0.00000000E+00
  0.00000000E+00  0.00000000E+00  0.00000000E+00
  0.00000000E+00  0.00000000E+00  0.00000000E+00
  0.00000000E+00  0.00000000E+00  0.00000000E+00
  0.00000000E+00  0.00000000E+00  0.00000000E+00
  0.00000000E+00  0.00000000E+00  0.00000000E+00
  0.00000000E+00  0.00000000E+00  0.00000000E+00
  0.00000000E+00  0.00000000E+00  0.00000000E+00
  0.00000000E+00  0.00000000E+00  0.00000000E+00
  0.00000000E+00  0.00000000E+00  0.00000000E+00
