cubic_FA0125MA0375Cs0500                
   1.00000000000000     
    12.6499194146401059   -0.0620407198486504   -0.0605124771303963
    -0.0619070778596068   12.6401437822136131   -0.0924933153435935
    -0.0600579913717467   -0.0924959525764330   12.7540813845404042
   Cs   I    Pb   C    N    H 
     4    24     8     4     5    23
Direct
  0.2489887634036394  0.7543133226157948  0.2478944052801417
  0.2420500623773371  0.7537513547246345  0.7472874932956375
  0.7712010609932087  0.2428806570637027  0.2334139073334140
  0.7403968466280728  0.7438130877311212  0.7502502401333895
  0.0025618013903090  0.0042360775518742  0.2399007417187732
  0.0348669974132437  0.0146366655664173  0.7389286820085705
  0.0082620879660584  0.5277732971210066  0.2393078791529968
  0.9772259360578270  0.5185168317578259  0.7377430380763145
  0.5344951693691155  0.9878508869610069  0.2570089323188894
  0.4942138232803107  0.9813261573970639  0.7564739346349326
  0.4716907994776638  0.5089423721664039  0.2523382402206419
  0.5307699553014740  0.5030788982522505  0.7531317319917681
  0.0339331167102143  0.2599882300959291  0.9898796321855132
  0.9783680167139285  0.2527673414270270  0.4758940912911319
  0.9682292830668844  0.7593194057767858  0.9682440983892967
  0.0591815720552650  0.7536649718764402  0.4932338046610828
  0.4787008030836009  0.2461889019568880  0.0205699044965336
  0.5552777177589904  0.2445414898266913  0.5195930742580335
  0.5637283774635431  0.7457194075797928  0.0149687534613553
  0.4682635984170816  0.7442053549001222  0.5040805853899706
  0.2511227118817460  0.4698264898144285  0.5318657307210681
  0.2544054498139606  0.5514825185860803  0.9859626532524128
  0.2639321444888003  0.0301464657816926  0.4843245996517040
  0.2602303834779945  0.9472722325805504  0.0076655332172731
  0.7508278909471707  0.5295249381356172  0.4661244593548922
  0.7522501437520450  0.4544791760308883  0.0102723359644575
  0.7617201281281739  0.9379234663089970  0.5130946038496472
  0.7586770345734289  0.0408243631376631  0.9782332671144760
  0.5074870265639978  0.9938335845119225  0.0053572829874691
  0.5156216135081706  0.9966167395684262  0.5081729831560540
  0.5028299523009375  0.5013229762884102  0.0030847211250277
  0.5020791064671720  0.4924496789242571  0.5031322715921644
  0.0127853854846426  0.0070838234729520  0.9909131544535962
  0.0050427701604007 -0.0015356621521565  0.4901389879170878
  0.0025746576288198  0.5080828513645617  0.9872447732393332
  0.0020537561738489  0.5053108139358274  0.4922566725862386
  0.2378433163944846  0.2534575312291176  0.2696032265501346
  0.7907945131016783  0.2529639509790476  0.7233540101681437
  0.2778219470732860  0.2514322810212063  0.7796921263699435
  0.7851571293068352  0.7753961852513662  0.2382226697656151
  0.3214832396835191  0.1940951654548305  0.2571553845383664
  0.2191695759549314  0.3400854021693074  0.2174113778783739
  0.7030091484157740  0.2516883697917529  0.8004662717027627
  0.2144595263178936  0.2357224361633363  0.6815556051710668
  0.6857840217456773  0.7287246403879911  0.2801664704028692
  0.1795471058397757  0.2290477484863321  0.3275390249440419
  0.3299271765527305  0.1285969417054885  0.3025060320606276
  0.3778722346674403  0.2097792871535287  0.2020520836613370
  0.2704705442038143  0.3692962071790548  0.1634262432332080
  0.1518411685747827  0.3832831259187415  0.2307315143915975
  0.6304386229163601  0.2516857145179902  0.7625658092787831
  0.7068257115282355  0.3173124080569452  0.8509498831985502
  0.7075302620543813  0.1848337795695166  0.8479857933598763
  0.7833298112710634  0.3234757624032620  0.6750053004410029
  0.8660452351254750  0.2551217738196038  0.7665254455411783
  0.7849553967688547  0.1816279432550902  0.6739557999952642
  0.2103991799833897  0.3057188914690553  0.6389514983646902
  0.1386130708493440  0.2086970414676039  0.6973130045960342
  0.2467285719252843  0.1785194316226353  0.6316942445946870
  0.2395377251699729  0.3115410658751716  0.8286653328891337
  0.2810149403144542  0.1766052698295864  0.8215478408138024
  0.3575620635172608  0.2778868458937991  0.7590657816818565
  0.6286911564609917  0.7216036356115612  0.2212432120727460
  0.6549899130431570  0.7753032290700276  0.3397014642270498
  0.6986254622355481  0.6545363346498209  0.3125545785944317
  0.7712869752105793  0.8586430096504004  0.2208365118843795
  0.8478909777032925  0.7688338839641609  0.2973758109845895
  0.8064151827192657  0.7323348946422671  0.1664843211757292
 
  0.00000000E+00  0.00000000E+00  0.00000000E+00
  0.00000000E+00  0.00000000E+00  0.00000000E+00
  0.00000000E+00  0.00000000E+00  0.00000000E+00
  0.00000000E+00  0.00000000E+00  0.00000000E+00
  0.00000000E+00  0.00000000E+00  0.00000000E+00
  0.00000000E+00  0.00000000E+00  0.00000000E+00
  0.00000000E+00  0.00000000E+00  0.00000000E+00
  0.00000000E+00  0.00000000E+00  0.00000000E+00
  0.00000000E+00  0.00000000E+00  0.00000000E+00
  0.00000000E+00  0.00000000E+00  0.00000000E+00
  0.00000000E+00  0.00000000E+00  0.00000000E+00
  0.00000000E+00  0.00000000E+00  0.00000000E+00
  0.00000000E+00  0.00000000E+00  0.00000000E+00
  0.00000000E+00  0.00000000E+00  0.00000000E+00
  0.00000000E+00  0.00000000E+00  0.00000000E+00
  0.00000000E+00  0.00000000E+00  0.00000000E+00
  0.00000000E+00  0.00000000E+00  0.00000000E+00
  0.00000000E+00  0.00000000E+00  0.00000000E+00
  0.00000000E+00  0.00000000E+00  0.00000000E+00
  0.00000000E+00  0.00000000E+00  0.00000000E+00
  0.00000000E+00  0.00000000E+00  0.00000000E+00
  0.00000000E+00  0.00000000E+00  0.00000000E+00
  0.00000000E+00  0.00000000E+00  0.00000000E+00
  0.00000000E+00  0.00000000E+00  0.00000000E+00
  0.00000000E+00  0.00000000E+00  0.00000000E+00
  0.00000000E+00  0.00000000E+00  0.00000000E+00
  0.00000000E+00  0.00000000E+00  0.00000000E+00
  0.00000000E+00  0.00000000E+00  0.00000000E+00
  0.00000000E+00  0.00000000E+00  0.00000000E+00
  0.00000000E+00  0.00000000E+00  0.00000000E+00
  0.00000000E+00  0.00000000E+00  0.00000000E+00
  0.00000000E+00  0.00000000E+00  0.00000000E+00
  0.00000000E+00  0.00000000E+00  0.00000000E+00
  0.00000000E+00  0.00000000E+00  0.00000000E+00
  0.00000000E+00  0.00000000E+00  0.00000000E+00
  0.00000000E+00  0.00000000E+00  0.00000000E+00
  0.00000000E+00  0.00000000E+00  0.00000000E+00
  0.00000000E+00  0.00000000E+00  0.00000000E+00
  0.00000000E+00  0.00000000E+00  0.00000000E+00
  0.00000000E+00  0.00000000E+00  0.00000000E+00
  0.00000000E+00  0.00000000E+00  0.00000000E+00
  0.00000000E+00  0.00000000E+00  0.00000000E+00
  0.00000000E+00  0.00000000E+00  0.00000000E+00
  0.00000000E+00  0.00000000E+00  0.00000000E+00
  0.00000000E+00  0.00000000E+00  0.00000000E+00
  0.00000000E+00  0.00000000E+00  0.00000000E+00
  0.00000000E+00  0.00000000E+00  0.00000000E+00
  0.00000000E+00  0.00000000E+00  0.00000000E+00
  0.00000000E+00  0.00000000E+00  0.00000000E+00
  0.00000000E+00  0.00000000E+00  0.00000000E+00
  0.00000000E+00  0.00000000E+00  0.00000000E+00
  0.00000000E+00  0.00000000E+00  0.00000000E+00
  0.00000000E+00  0.00000000E+00  0.00000000E+00
  0.00000000E+00  0.00000000E+00  0.00000000E+00
  0.00000000E+00  0.00000000E+00  0.00000000E+00
  0.00000000E+00  0.00000000E+00  0.00000000E+00
  0.00000000E+00  0.00000000E+00  0.00000000E+00
  0.00000000E+00  0.00000000E+00  0.00000000E+00
  0.00000000E+00  0.00000000E+00  0.00000000E+00
  0.00000000E+00  0.00000000E+00  0.00000000E+00
  0.00000000E+00  0.00000000E+00  0.00000000E+00
  0.00000000E+00  0.00000000E+00  0.00000000E+00
  0.00000000E+00  0.00000000E+00  0.00000000E+00
  0.00000000E+00  0.00000000E+00  0.00000000E+00
  0.00000000E+00  0.00000000E+00  0.00000000E+00
  0.00000000E+00  0.00000000E+00  0.00000000E+00
  0.00000000E+00  0.00000000E+00  0.00000000E+00
  0.00000000E+00  0.00000000E+00  0.00000000E+00
