ortho_FA0500MA0500Cs0000                
   1.00000000000000     
    11.4597786325669748   -0.0121161225874323   -0.1242605883194717
    -0.0041432182467038    9.4560970330427967   -0.1139721224940951
    -0.2039157343603465   -0.1973204915425928   18.9638872935512737
   Pb   I    Cs   C    N    H 
     8    24     0     8    12    44
Direct
  0.1740729074076022  0.1275223791807929  0.4363567425995753
  0.1642297200890565  0.6269181718913166  0.4379932886742888
  0.8522102346007583  0.3652212525302533  0.5514632418644888
  0.8580664421018782  0.8754630197909792  0.5499043682437597
  0.3291212242435743  0.3873951668629843  0.9438565001614206
  0.3428533050272641  0.8696903054736935  0.9516433098310992
  0.6537855192380756  0.1455832756292053  0.0546429716869933
  0.6616709678677561  0.6318829782806079  0.0537952193983032
  0.1673603965822271  0.1304351985898655  0.0057550958369577
  0.1704110920800566  0.6296943288731410  0.0083616235654861
  0.8179056850102563  0.3847732269490585  0.9901598624718038
  0.8155991083879663  0.8892585862298943  0.9989241442043086
  0.3412015717633352  0.3877773810352435  0.4971214131553690
  0.3321524847648211  0.8744752793363890  0.5095157744318800
  0.6646998316079479  0.1096919700488365  0.5140532045213844
  0.6931301222160613  0.6254417795553681  0.4851046335003646
  0.3182435451078457  0.1310679133835389  0.3046340683329438
  0.3016872352752460  0.6525129293918007  0.2967416280667980
  0.7433550144594058  0.3880124223588445  0.7004239703854439
  0.7557456523829930  0.8787039676444001  0.7007099485867727
  0.1978196821659645  0.3889178052747841  0.7930376618891865
  0.2285425736704216  0.8553208027640377  0.7977994731922410
  0.7918736106827535  0.1615283768309780  0.1983537263500793
  0.7997591759444934  0.6195006518327517  0.1976156931421128
  0.0383381895372732  0.1334607972366264  0.6016067685565682
  0.0353413065421507  0.6177671900076680  0.5942124084110713
  0.9867277026224724  0.3690965713172615  0.3908260339918846
  0.9864702150592125  0.8803723911737421  0.3891959069010404
  0.4666368253774310  0.3924444648379026  0.0975777779841413
  0.4866078278054765  0.8879039187540553  0.1068407912788685
  0.5071582020483788  0.1245907664913132  0.8957642133224080
  0.5171600661107864  0.6266628441753679  0.8953210215195195
  0.5624544255521171  0.3763497909366663  0.3351943236935553
  0.4346886130980614  0.6359093316223415  0.6828076873495572
  0.0937419171414342  0.8539078562597356  0.1823211604619449
  0.9066308855793592  0.0744412253302735  0.8403228839292602
  0.4462894378578430  0.1791603999492735  0.6807480671068239
  0.9405988960358346  0.6405224357649236  0.8536169923530725
  0.6202380020259626  0.9155538616522829  0.3145040498280186
  0.1124187167392063  0.4123032786130486  0.1867978352133015
  0.6516215554687198  0.2976860160105229  0.3543683802790025
  0.5580792287991705  0.4496965620225524  0.2773080824374125
  0.5226519005444701  0.6605704680337461  0.6416923003790606
  0.3339735921573428  0.5817669462318815  0.6617867868352260
  0.1953487560917436  0.9069724856813711  0.1663442302229322
  0.9925569249108172  0.8921844564666371  0.1557348721883837
  0.0047423909326703  0.1114217519132347  0.8115497588915769
  0.8094989114406816  0.1476946423967104  0.8386318204148021
  0.3410833246489669  0.0876535755903278  0.6700342719246178
  0.9466558706609660  0.6282534477166800  0.7756704702754023
  0.5404195014697877  0.8563760039657511  0.3672926963002657
  0.0248904745535122  0.3628166045525064  0.1326758772576926
  0.4872166679789912  0.3818210871383991  0.3697974740647204
  0.6498338987688056  0.2440655109154303  0.4008624256880529
  0.7211741267112298  0.2819150650550272  0.3220125028129595
  0.6266808419826779  0.4551483280428232  0.2435643569474163
  0.4835469132336143  0.5055387858044822  0.2660187034876367
  0.4455247871655167  0.6632987586718662  0.7390196858705942
  0.5982690918446020  0.7053391635615912  0.6625253785955285
  0.5219019206733397  0.6360004004917711  0.5888316481362545
  0.3189288944366007  0.5461236379352401  0.6107867874523087
  0.2733074236939039  0.5582741891177805  0.6988497733034077
  0.0941904334246757  0.7711200981118667  0.2216810042104875
  0.2687241683445686  0.8709426325848525  0.1915573493540992
  0.2046532731729600  0.9833282520881728  0.1293047957750796
  0.9831314790504821  0.9652312052381454  0.1172397884322553
  0.9186343785412254  0.8390172481012096  0.1700216133885591
  0.9057621838093348  0.9762826044271558  0.8696078749508479
  0.0764124498112808  0.0462227989433874  0.8154701849936865
  0.0177825048080655  0.2062123931860535  0.7879122780417120
  0.7987568405180724  0.2342505830970064  0.8072524979198081
  0.7363006340884983  0.1093738955541840  0.8615895186914395
  0.2659073072890493  0.1465300434134414  0.6617375257719394
  0.3246520253964954  0.0245820348261827  0.7135636149429869
  0.3480773256277179  0.0202311285399563  0.6258174563062722
  0.4327275415673630  0.2482928726521153  0.7269320792356029
  0.5231765228864703  0.1124204146328934  0.6890901154933772
  0.4572276988324667  0.2417902474396160  0.6334202756951587
  0.9129586170160415  0.7179646961622647  0.7511842668358418
  0.8950006949094130  0.5442883159345263  0.7553527287181331
  0.0316313978203567  0.6111639767716148  0.7600422188727092
  0.8501173854145136  0.6600454793929741  0.8684472552784830
  0.9722076743059382  0.5422288471665739  0.8765837169267413
  0.9973768857627605  0.7273424718549876  0.8723399753705017
  0.4669485443199086  0.8074041759922747  0.3434800147947236
  0.5090881503981738  0.9332934390476544  0.4016424825693547
  0.5826691916441480  0.7815425957362037  0.3983878625136401
  0.5740475213044508  0.9988137670346606  0.2861506761845242
  0.6979090127305583  0.9583646554483735  0.3421355957325914
  0.6463161845961261  0.8310786266626397  0.2776070681006518
  0.9835066609062101  0.4456838264562758  0.1076878621644167
  0.9578107665617559  0.3032136105497466  0.1547506832653913
  0.0632573203166491  0.3005702954479938  0.0934634692866648
  0.0673568253350174  0.4754989918552605  0.2268507775928419
  0.1537971813812155  0.3207925750119056  0.2114772823607073
  0.1784841225946447  0.4759131601050517  0.1611320451426718
 
  0.00000000E+00  0.00000000E+00  0.00000000E+00
  0.00000000E+00  0.00000000E+00  0.00000000E+00
  0.00000000E+00  0.00000000E+00  0.00000000E+00
  0.00000000E+00  0.00000000E+00  0.00000000E+00
  0.00000000E+00  0.00000000E+00  0.00000000E+00
  0.00000000E+00  0.00000000E+00  0.00000000E+00
  0.00000000E+00  0.00000000E+00  0.00000000E+00
  0.00000000E+00  0.00000000E+00  0.00000000E+00
  0.00000000E+00  0.00000000E+00  0.00000000E+00
  0.00000000E+00  0.00000000E+00  0.00000000E+00
  0.00000000E+00  0.00000000E+00  0.00000000E+00
  0.00000000E+00  0.00000000E+00  0.00000000E+00
  0.00000000E+00  0.00000000E+00  0.00000000E+00
  0.00000000E+00  0.00000000E+00  0.00000000E+00
  0.00000000E+00  0.00000000E+00  0.00000000E+00
  0.00000000E+00  0.00000000E+00  0.00000000E+00
  0.00000000E+00  0.00000000E+00  0.00000000E+00
  0.00000000E+00  0.00000000E+00  0.00000000E+00
  0.00000000E+00  0.00000000E+00  0.00000000E+00
  0.00000000E+00  0.00000000E+00  0.00000000E+00
  0.00000000E+00  0.00000000E+00  0.00000000E+00
  0.00000000E+00  0.00000000E+00  0.00000000E+00
  0.00000000E+00  0.00000000E+00  0.00000000E+00
  0.00000000E+00  0.00000000E+00  0.00000000E+00
  0.00000000E+00  0.00000000E+00  0.00000000E+00
  0.00000000E+00  0.00000000E+00  0.00000000E+00
  0.00000000E+00  0.00000000E+00  0.00000000E+00
  0.00000000E+00  0.00000000E+00  0.00000000E+00
  0.00000000E+00  0.00000000E+00  0.00000000E+00
  0.00000000E+00  0.00000000E+00  0.00000000E+00
  0.00000000E+00  0.00000000E+00  0.00000000E+00
  0.00000000E+00  0.00000000E+00  0.00000000E+00
  0.00000000E+00  0.00000000E+00  0.00000000E+00
  0.00000000E+00  0.00000000E+00  0.00000000E+00
  0.00000000E+00  0.00000000E+00  0.00000000E+00
  0.00000000E+00  0.00000000E+00  0.00000000E+00
  0.00000000E+00  0.00000000E+00  0.00000000E+00
  0.00000000E+00  0.00000000E+00  0.00000000E+00
  0.00000000E+00  0.00000000E+00  0.00000000E+00
  0.00000000E+00  0.00000000E+00  0.00000000E+00
  0.00000000E+00  0.00000000E+00  0.00000000E+00
  0.00000000E+00  0.00000000E+00  0.00000000E+00
  0.00000000E+00  0.00000000E+00  0.00000000E+00
  0.00000000E+00  0.00000000E+00  0.00000000E+00
  0.00000000E+00  0.00000000E+00  0.00000000E+00
  0.00000000E+00  0.00000000E+00  0.00000000E+00
  0.00000000E+00  0.00000000E+00  0.00000000E+00
  0.00000000E+00  0.00000000E+00  0.00000000E+00
  0.00000000E+00  0.00000000E+00  0.00000000E+00
  0.00000000E+00  0.00000000E+00  0.00000000E+00
  0.00000000E+00  0.00000000E+00  0.00000000E+00
  0.00000000E+00  0.00000000E+00  0.00000000E+00
  0.00000000E+00  0.00000000E+00  0.00000000E+00
  0.00000000E+00  0.00000000E+00  0.00000000E+00
  0.00000000E+00  0.00000000E+00  0.00000000E+00
  0.00000000E+00  0.00000000E+00  0.00000000E+00
  0.00000000E+00  0.00000000E+00  0.00000000E+00
  0.00000000E+00  0.00000000E+00  0.00000000E+00
  0.00000000E+00  0.00000000E+00  0.00000000E+00
  0.00000000E+00  0.00000000E+00  0.00000000E+00
  0.00000000E+00  0.00000000E+00  0.00000000E+00
  0.00000000E+00  0.00000000E+00  0.00000000E+00
  0.00000000E+00  0.00000000E+00  0.00000000E+00
  0.00000000E+00  0.00000000E+00  0.00000000E+00
  0.00000000E+00  0.00000000E+00  0.00000000E+00
  0.00000000E+00  0.00000000E+00  0.00000000E+00
  0.00000000E+00  0.00000000E+00  0.00000000E+00
  0.00000000E+00  0.00000000E+00  0.00000000E+00
  0.00000000E+00  0.00000000E+00  0.00000000E+00
  0.00000000E+00  0.00000000E+00  0.00000000E+00
  0.00000000E+00  0.00000000E+00  0.00000000E+00
  0.00000000E+00  0.00000000E+00  0.00000000E+00
  0.00000000E+00  0.00000000E+00  0.00000000E+00
  0.00000000E+00  0.00000000E+00  0.00000000E+00
  0.00000000E+00  0.00000000E+00  0.00000000E+00
  0.00000000E+00  0.00000000E+00  0.00000000E+00
  0.00000000E+00  0.00000000E+00  0.00000000E+00
  0.00000000E+00  0.00000000E+00  0.00000000E+00
  0.00000000E+00  0.00000000E+00  0.00000000E+00
  0.00000000E+00  0.00000000E+00  0.00000000E+00
  0.00000000E+00  0.00000000E+00  0.00000000E+00
  0.00000000E+00  0.00000000E+00  0.00000000E+00
  0.00000000E+00  0.00000000E+00  0.00000000E+00
  0.00000000E+00  0.00000000E+00  0.00000000E+00
  0.00000000E+00  0.00000000E+00  0.00000000E+00
  0.00000000E+00  0.00000000E+00  0.00000000E+00
  0.00000000E+00  0.00000000E+00  0.00000000E+00
  0.00000000E+00  0.00000000E+00  0.00000000E+00
  0.00000000E+00  0.00000000E+00  0.00000000E+00
  0.00000000E+00  0.00000000E+00  0.00000000E+00
  0.00000000E+00  0.00000000E+00  0.00000000E+00
  0.00000000E+00  0.00000000E+00  0.00000000E+00
  0.00000000E+00  0.00000000E+00  0.00000000E+00
  0.00000000E+00  0.00000000E+00  0.00000000E+00
  0.00000000E+00  0.00000000E+00  0.00000000E+00
  0.00000000E+00  0.00000000E+00  0.00000000E+00
