hexa_FA0000MA0375Cs0625                 
   1.00000000000000     
    17.6618832007683970    0.1056569978516862    0.1956938938580940
    -8.7680473660845504   14.8930554370585266   -0.0251724628947474
     0.0852412732080913    0.0375084885830714    7.8132348308483932
   Pb   I    N    C    H    Cs
     8    24     3     3    18     5
Direct
  0.5081242073695066  0.5066793025711646  0.9416915083210858
  0.5015445687191070  0.0043185006821896  0.9444304276026488
  0.0025770409151067  0.5034710481493083  0.9432528721468287
  0.0121403694619064  0.0112222998274965  0.9379578376606775
  0.0116888619306466  0.0110885377934204  0.4376727311992659
  0.0015149937531241  0.5024546706391771  0.4471813250650776
  0.5009440369442458  0.0020986624926732  0.4440431917617643
  0.5085831208000527  0.5071292778334788  0.4412731793215914
  0.4432421953119064  0.1114572159202508  0.2054455773476870
  0.4325528641244194  0.6048599572728482  0.1980349695136494
  0.9326999233321212  0.1015013735598300  0.1904982559147443
  0.9140543628539558  0.5851330755312251  0.2023094930176356
  0.4126219501388978  0.3351925812978192  0.1979090135405101
  0.4062145591850104  0.8323355423148766  0.1945232451527866
  0.9137592482319288  0.3330598234169010  0.2016089465448545
  0.9371021509067141  0.8356868363810339  0.1899365277536770
  0.1810730863767148  0.1045816464426235  0.1791962572742781
  0.1712353165921953  0.5926485839467983  0.1904122826003358
  0.6751616281461653  0.0692233999075347  0.1818891930262493
  0.6771811879811603  0.5794106528642949  0.1831000424711069
  0.0950330496498717  0.4249298761249265  0.6912148193374118
  0.0915621926105860  0.9207015162071822  0.6853998222011514
  0.5794500507743837  0.4074315608523175  0.6881261999132064
  0.5644719796063127  0.8927763079870239  0.6996226600899167
  0.1066078321124583  0.1828113110958759  0.6829796883556605
  0.0924846253951782  0.6806986302816094  0.6992871393584347
  0.6131555172317441  0.1741183995393496  0.6828413694042509
  0.6053562486112922  0.6777695295542308  0.6916522642542449
  0.3386094950843022  0.4297573559603050  0.6994730619221604
  0.3379878962660877  0.9409811730586656  0.7003579911969731
  0.8331454366623688  0.4300027986327302  0.7054975331300981
  0.8404057374458804  0.9310166414156250  0.6947150703107633
  0.7764379273325509  0.1086774207527188  0.7257348932884752
  0.6233773370705364  0.8396974494702922  0.1415738451985865
  0.1230607320804064  0.7991804559011354  0.1358811003629034
  0.8675396348288501  0.1813000862568589  0.6819264382544898
  0.7062599026411147  0.8450254753737791  0.1971998950889756
  0.2000213447566146  0.8787251073794322  0.2099703280910952
  0.7295603982506673  0.1210544236659853  0.6735028710267176
  0.7637889330167709  0.1029312800409145  0.8569892394055498
  0.7656345190327823  0.0468375549879305  0.6844216503645190
  0.8759109269194121  0.2450892908766637  0.7271949354045503
  0.9136473309749922  0.1661668088344282  0.7440081326043904
  0.8772269321743369  0.1834580390687442  0.5426327071723679
  0.6192601982848116  0.8393638659726279  0.0093018284633259
  0.6204112369657425  0.8957444446672390  0.1824544484955723
  0.5678836180410251  0.7819300219685313  0.1866945383575651
  0.7616862659597865  0.9089545255492345  0.1523498354734168
  0.7053257343650379  0.8416770379222785  0.3373679271459090
  0.7105430311032048  0.7888712783611397  0.1427689362835884
  0.0663416307837623  0.8038891986141222  0.1500199007755665
  0.1104350385952226  0.7400655520470937  0.1945396890631495
  0.1317014263168387  0.7919174159193457  0.0061460548740487
  0.1846774417535227  0.8843443801577046  0.3446051073282621
  0.2571300919266566  0.8697737014560657  0.2001515146978436
  0.2120613845382007  0.9386525700354529  0.1392521571461088
  0.6784666879571475  0.3452887682840529  0.1883124412827620
  0.1662148156330104  0.3330567005355791  0.1859618896442070
  0.3247497541639172  0.6603188065366037  0.6826050148919451
  0.8330893605237786  0.6689164757750257  0.6822335905267998
  0.3284411867836047  0.1771311269959706  0.6783205566009490
 
  0.00000000E+00  0.00000000E+00  0.00000000E+00
  0.00000000E+00  0.00000000E+00  0.00000000E+00
  0.00000000E+00  0.00000000E+00  0.00000000E+00
  0.00000000E+00  0.00000000E+00  0.00000000E+00
  0.00000000E+00  0.00000000E+00  0.00000000E+00
  0.00000000E+00  0.00000000E+00  0.00000000E+00
  0.00000000E+00  0.00000000E+00  0.00000000E+00
  0.00000000E+00  0.00000000E+00  0.00000000E+00
  0.00000000E+00  0.00000000E+00  0.00000000E+00
  0.00000000E+00  0.00000000E+00  0.00000000E+00
  0.00000000E+00  0.00000000E+00  0.00000000E+00
  0.00000000E+00  0.00000000E+00  0.00000000E+00
  0.00000000E+00  0.00000000E+00  0.00000000E+00
  0.00000000E+00  0.00000000E+00  0.00000000E+00
  0.00000000E+00  0.00000000E+00  0.00000000E+00
  0.00000000E+00  0.00000000E+00  0.00000000E+00
  0.00000000E+00  0.00000000E+00  0.00000000E+00
  0.00000000E+00  0.00000000E+00  0.00000000E+00
  0.00000000E+00  0.00000000E+00  0.00000000E+00
  0.00000000E+00  0.00000000E+00  0.00000000E+00
  0.00000000E+00  0.00000000E+00  0.00000000E+00
  0.00000000E+00  0.00000000E+00  0.00000000E+00
  0.00000000E+00  0.00000000E+00  0.00000000E+00
  0.00000000E+00  0.00000000E+00  0.00000000E+00
  0.00000000E+00  0.00000000E+00  0.00000000E+00
  0.00000000E+00  0.00000000E+00  0.00000000E+00
  0.00000000E+00  0.00000000E+00  0.00000000E+00
  0.00000000E+00  0.00000000E+00  0.00000000E+00
  0.00000000E+00  0.00000000E+00  0.00000000E+00
  0.00000000E+00  0.00000000E+00  0.00000000E+00
  0.00000000E+00  0.00000000E+00  0.00000000E+00
  0.00000000E+00  0.00000000E+00  0.00000000E+00
  0.00000000E+00  0.00000000E+00  0.00000000E+00
  0.00000000E+00  0.00000000E+00  0.00000000E+00
  0.00000000E+00  0.00000000E+00  0.00000000E+00
  0.00000000E+00  0.00000000E+00  0.00000000E+00
  0.00000000E+00  0.00000000E+00  0.00000000E+00
  0.00000000E+00  0.00000000E+00  0.00000000E+00
  0.00000000E+00  0.00000000E+00  0.00000000E+00
  0.00000000E+00  0.00000000E+00  0.00000000E+00
  0.00000000E+00  0.00000000E+00  0.00000000E+00
  0.00000000E+00  0.00000000E+00  0.00000000E+00
  0.00000000E+00  0.00000000E+00  0.00000000E+00
  0.00000000E+00  0.00000000E+00  0.00000000E+00
  0.00000000E+00  0.00000000E+00  0.00000000E+00
  0.00000000E+00  0.00000000E+00  0.00000000E+00
  0.00000000E+00  0.00000000E+00  0.00000000E+00
  0.00000000E+00  0.00000000E+00  0.00000000E+00
  0.00000000E+00  0.00000000E+00  0.00000000E+00
  0.00000000E+00  0.00000000E+00  0.00000000E+00
  0.00000000E+00  0.00000000E+00  0.00000000E+00
  0.00000000E+00  0.00000000E+00  0.00000000E+00
  0.00000000E+00  0.00000000E+00  0.00000000E+00
  0.00000000E+00  0.00000000E+00  0.00000000E+00
  0.00000000E+00  0.00000000E+00  0.00000000E+00
  0.00000000E+00  0.00000000E+00  0.00000000E+00
  0.00000000E+00  0.00000000E+00  0.00000000E+00
  0.00000000E+00  0.00000000E+00  0.00000000E+00
  0.00000000E+00  0.00000000E+00  0.00000000E+00
  0.00000000E+00  0.00000000E+00  0.00000000E+00
  0.00000000E+00  0.00000000E+00  0.00000000E+00
