ortho_FA0375MA0625Cs0000                
   1.00000000000000     
    11.5543482406746651    0.1124885937423010   -0.0142976747274626
     0.1045477319201934    9.4097651577748600   -0.0817609535677717
    -0.0212179309425100   -0.1501894889135764   18.7239310330562176
   Pb   I    Cs   C    N    H 
     8    24     0     8    11    45
Direct
  0.1623512196030178  0.1121249990987266  0.4407271829408160
  0.1681957438061274  0.6057599552246863  0.4404698287089228
  0.8417611972233404  0.3812090336927992  0.5502777422705651
  0.8434115963126647  0.8828616527963659  0.5484190811919212
  0.3466678025006855  0.3866262499859025  0.9457601326609646
  0.3394319923409771  0.8720504230702670  0.9474061883785819
  0.6481756342705358  0.1152710618425600  0.0579692356787682
  0.6561186969598676  0.6307127160285739  0.0570924497985228
  0.1635447993765684  0.1323510935543646  0.0021193446417296
  0.1726201845500327  0.6315036676087101  0.0048053384455495
  0.8053738940300584  0.3656897334682009  0.9952923190684964
  0.8126032167370393  0.8677412935380091  0.9848503872152801
  0.3396734125027953  0.3590306471620693  0.5067018591106657
  0.3252083450173027  0.8624337829370012  0.5156288056522358
  0.6732487348803295  0.1302236490224517  0.4864413122809720
  0.6694894416232939  0.6411034788089206  0.5039050903847274
  0.3138326659714413  0.0939802156455485  0.3029351910489561
  0.3314214481815735  0.5821344653417651  0.3026802891257338
  0.7431651572742892  0.3958345544220321  0.7006840095945206
  0.7290639208416552  0.8988735388766285  0.6940444248597674
  0.2417034376149734  0.3937988935800613  0.7897395989938667
  0.2348331645834403  0.8824084702958184  0.7893030812268327
  0.7795306161463441  0.1322849540319088  0.2028701256971268
  0.8073017585060784  0.6526138428308912  0.1929546938815311
  0.0286494914037800  0.1349014977454060  0.5984876325616868
  0.0310267934129773  0.6221477418112558  0.5942487074113249
  0.9944822516573488  0.3664109391512140  0.3856997913624441
  0.9949649206541283  0.8620786047522925  0.3873523994157561
  0.4795870009047629  0.3791671435783901  0.1067739004055459
  0.4650761419822985  0.8779736614102125  0.1074657885873301
  0.5143644689913119  0.1199891818491749  0.8969420171168739
  0.5222877703452119  0.6231380439550575  0.8966547674781999
  0.9212389738587178  0.0999830290855187  0.8375162123007017
  0.9081861274869735  0.6229936908094721  0.8260650171061661
  0.0935930896820333  0.4007775308477214  0.1826530025078111
  0.1007102679228050  0.8554041897814637  0.1837798379571073
  0.6222230217204865  0.8651316583801413  0.3218466735906275
  0.4713323072446954  0.6518671544122323  0.6848535883962282
  0.6491263246674670  0.4176950404629491  0.3323020679973271
  0.4633309703519882  0.1480413700049762  0.6776402023158511
  0.0054108896067729  0.1472906250755103  0.7976819218424736
  0.8130101812017088  0.1431337110919476  0.8337653218787889
  0.9701623829026691  0.5318896134262595  0.8634014993071609
  0.9511952517152635  0.7140216664204048  0.7814103668653685
  0.1954799476775954  0.3384318915554425  0.1742005699592823
  0.0044456565688567  0.3851268618104898  0.1400876033468082
  0.0131506524180206  0.9103016438709193  0.1320547692301144
  0.5189405457691193  0.8502836084603421  0.3680201780421455
  0.3579224835917918  0.6076010116772950  0.6548826031225832
  0.5589984291080734  0.3107477709829608  0.3174144165196903
  0.3413028995497863  0.1204663154653214  0.6567022544895499
  0.9436188456585610  0.0194640804534637  0.8770022287685810
  0.0866333498085609  0.1017271547556854  0.8017432211874816
  0.9912435093457025  0.2195913398213340  0.7583612274743479
  0.7850022786380675  0.2144777140850478  0.7956347689375345
  0.7520742816188516  0.0999309269534814  0.8659411856118031
  0.8141793532499482  0.6232457495426552  0.8326659586867384
  0.9299765350584582  0.4720716179005285  0.9010606452125856
  0.0582900386122466  0.5222010303615762  0.8580360921468474
  0.0385752662082961  0.7248290820560700  0.7741422794971164
  0.8944190879094919  0.7747429101570874  0.7511232549559460
  0.0821724426691077  0.4703911608328666  0.2294938766785457
  0.2597044529350475  0.3600129168266044  0.2101468022834380
  0.2139700052482060  0.2728669083675869  0.1313529721233742
  0.0077297752685582  0.3254815189981585  0.0939951907700005
  0.9292256507595025  0.4423294318715274  0.1509301532442972
  0.9493083355392727  0.9742253994046023  0.1571491544295364
  0.9685513253411394  0.8289882650944236  0.1068684746559010
  0.0514556813398432  0.9698807969920518  0.0923929660413291
  0.0560453228090402  0.7914199647999334  0.2230724447754838
  0.1656212530778774  0.7909521059873982  0.1545583724128211
  0.1423723611756543  0.9450533637128437  0.2108542454476943
  0.4552363725801323  0.9279429163193832  0.3562250094100234
  0.5391688242499958  0.8584991111600027  0.4217742980102482
  0.4786556015245415  0.7531730269096495  0.3592084186550150
  0.6513250033815947  0.9750060241084076  0.3248671871648723
  0.6919034549822938  0.7944443835609346  0.3406668921177392
  0.5990379484762676  0.8376987923791948  0.2666515907123074
  0.3151681157592789  0.6915443831310228  0.6301226618182059
  0.3050096593000060  0.5679639643729233  0.6948492632711564
  0.3672517161285643  0.5280531761761174  0.6156338054144551
  0.4552888713187171  0.7384996964043542  0.7235268555890918
  0.5124727652854301  0.5614263249479349  0.7116970868538977
  0.5270441627123417  0.6864500838012230  0.6415034177236951
  0.4786331806601904  0.3597600437229511  0.3076278537365646
  0.5489870528720501  0.2448616759016292  0.3606539825526959
  0.5824116260354387  0.2476925013435622  0.2735083709175131
  0.6228991314156483  0.4808103391181071  0.3794002737202964
  0.7315821712221355  0.3622088066607927  0.3427044328097769
  0.6579359552572852  0.4850915962539640  0.2855639808482469
  0.3043429548731418  0.2064688720160019  0.6304028913869799
  0.2911183151660799  0.0966758033307120  0.7008144699817700
  0.3363469911413150  0.0344134720104086  0.6208720698162922
  0.4643292946866845  0.2416542841210310  0.7130816309247567
  0.4982746402712525  0.0556768780526120  0.7059210726203473
  0.5144949551837186  0.1654692284356684  0.6294757927169329
 
  0.00000000E+00  0.00000000E+00  0.00000000E+00
  0.00000000E+00  0.00000000E+00  0.00000000E+00
  0.00000000E+00  0.00000000E+00  0.00000000E+00
  0.00000000E+00  0.00000000E+00  0.00000000E+00
  0.00000000E+00  0.00000000E+00  0.00000000E+00
  0.00000000E+00  0.00000000E+00  0.00000000E+00
  0.00000000E+00  0.00000000E+00  0.00000000E+00
  0.00000000E+00  0.00000000E+00  0.00000000E+00
  0.00000000E+00  0.00000000E+00  0.00000000E+00
  0.00000000E+00  0.00000000E+00  0.00000000E+00
  0.00000000E+00  0.00000000E+00  0.00000000E+00
  0.00000000E+00  0.00000000E+00  0.00000000E+00
  0.00000000E+00  0.00000000E+00  0.00000000E+00
  0.00000000E+00  0.00000000E+00  0.00000000E+00
  0.00000000E+00  0.00000000E+00  0.00000000E+00
  0.00000000E+00  0.00000000E+00  0.00000000E+00
  0.00000000E+00  0.00000000E+00  0.00000000E+00
  0.00000000E+00  0.00000000E+00  0.00000000E+00
  0.00000000E+00  0.00000000E+00  0.00000000E+00
  0.00000000E+00  0.00000000E+00  0.00000000E+00
  0.00000000E+00  0.00000000E+00  0.00000000E+00
  0.00000000E+00  0.00000000E+00  0.00000000E+00
  0.00000000E+00  0.00000000E+00  0.00000000E+00
  0.00000000E+00  0.00000000E+00  0.00000000E+00
  0.00000000E+00  0.00000000E+00  0.00000000E+00
  0.00000000E+00  0.00000000E+00  0.00000000E+00
  0.00000000E+00  0.00000000E+00  0.00000000E+00
  0.00000000E+00  0.00000000E+00  0.00000000E+00
  0.00000000E+00  0.00000000E+00  0.00000000E+00
  0.00000000E+00  0.00000000E+00  0.00000000E+00
  0.00000000E+00  0.00000000E+00  0.00000000E+00
  0.00000000E+00  0.00000000E+00  0.00000000E+00
  0.00000000E+00  0.00000000E+00  0.00000000E+00
  0.00000000E+00  0.00000000E+00  0.00000000E+00
  0.00000000E+00  0.00000000E+00  0.00000000E+00
  0.00000000E+00  0.00000000E+00  0.00000000E+00
  0.00000000E+00  0.00000000E+00  0.00000000E+00
  0.00000000E+00  0.00000000E+00  0.00000000E+00
  0.00000000E+00  0.00000000E+00  0.00000000E+00
  0.00000000E+00  0.00000000E+00  0.00000000E+00
  0.00000000E+00  0.00000000E+00  0.00000000E+00
  0.00000000E+00  0.00000000E+00  0.00000000E+00
  0.00000000E+00  0.00000000E+00  0.00000000E+00
  0.00000000E+00  0.00000000E+00  0.00000000E+00
  0.00000000E+00  0.00000000E+00  0.00000000E+00
  0.00000000E+00  0.00000000E+00  0.00000000E+00
  0.00000000E+00  0.00000000E+00  0.00000000E+00
  0.00000000E+00  0.00000000E+00  0.00000000E+00
  0.00000000E+00  0.00000000E+00  0.00000000E+00
  0.00000000E+00  0.00000000E+00  0.00000000E+00
  0.00000000E+00  0.00000000E+00  0.00000000E+00
  0.00000000E+00  0.00000000E+00  0.00000000E+00
  0.00000000E+00  0.00000000E+00  0.00000000E+00
  0.00000000E+00  0.00000000E+00  0.00000000E+00
  0.00000000E+00  0.00000000E+00  0.00000000E+00
  0.00000000E+00  0.00000000E+00  0.00000000E+00
  0.00000000E+00  0.00000000E+00  0.00000000E+00
  0.00000000E+00  0.00000000E+00  0.00000000E+00
  0.00000000E+00  0.00000000E+00  0.00000000E+00
  0.00000000E+00  0.00000000E+00  0.00000000E+00
  0.00000000E+00  0.00000000E+00  0.00000000E+00
  0.00000000E+00  0.00000000E+00  0.00000000E+00
  0.00000000E+00  0.00000000E+00  0.00000000E+00
  0.00000000E+00  0.00000000E+00  0.00000000E+00
  0.00000000E+00  0.00000000E+00  0.00000000E+00
  0.00000000E+00  0.00000000E+00  0.00000000E+00
  0.00000000E+00  0.00000000E+00  0.00000000E+00
  0.00000000E+00  0.00000000E+00  0.00000000E+00
  0.00000000E+00  0.00000000E+00  0.00000000E+00
  0.00000000E+00  0.00000000E+00  0.00000000E+00
  0.00000000E+00  0.00000000E+00  0.00000000E+00
  0.00000000E+00  0.00000000E+00  0.00000000E+00
  0.00000000E+00  0.00000000E+00  0.00000000E+00
  0.00000000E+00  0.00000000E+00  0.00000000E+00
  0.00000000E+00  0.00000000E+00  0.00000000E+00
  0.00000000E+00  0.00000000E+00  0.00000000E+00
  0.00000000E+00  0.00000000E+00  0.00000000E+00
  0.00000000E+00  0.00000000E+00  0.00000000E+00
  0.00000000E+00  0.00000000E+00  0.00000000E+00
  0.00000000E+00  0.00000000E+00  0.00000000E+00
  0.00000000E+00  0.00000000E+00  0.00000000E+00
  0.00000000E+00  0.00000000E+00  0.00000000E+00
  0.00000000E+00  0.00000000E+00  0.00000000E+00
  0.00000000E+00  0.00000000E+00  0.00000000E+00
  0.00000000E+00  0.00000000E+00  0.00000000E+00
  0.00000000E+00  0.00000000E+00  0.00000000E+00
  0.00000000E+00  0.00000000E+00  0.00000000E+00
  0.00000000E+00  0.00000000E+00  0.00000000E+00
  0.00000000E+00  0.00000000E+00  0.00000000E+00
  0.00000000E+00  0.00000000E+00  0.00000000E+00
  0.00000000E+00  0.00000000E+00  0.00000000E+00
  0.00000000E+00  0.00000000E+00  0.00000000E+00
  0.00000000E+00  0.00000000E+00  0.00000000E+00
  0.00000000E+00  0.00000000E+00  0.00000000E+00
  0.00000000E+00  0.00000000E+00  0.00000000E+00
  0.00000000E+00  0.00000000E+00  0.00000000E+00
