cubic_FA0000MA0375Cs0625                
   1.00000000000000     
    12.7659970520890536    0.0469245084634382   -0.0099996238614186
     0.0471786661492607   12.7080433259009631    0.0337843888743179
    -0.0098929538747132    0.0337315222501542   12.6693292229846914
   Cs   I    Pb   C    N    H 
     5    24     8     3     3    18
Direct
  0.2347886199131364  0.2476226692257776  0.2456065267293161
  0.2376226914382474  0.2474243436441287  0.7478961411404967
  0.2388752344416369  0.7494264868557283  0.2429352687554469
  0.2341359278198947  0.7532671677727418  0.7668551550955726
  0.7675873149751460  0.7557950880960510  0.2320173182844972
  0.0330121577107983  0.0069604845567348  0.2521001142122991
  0.0145435326849697  0.9909297920751959  0.7518038332233261
  0.0042433598575969  0.4982568612282154  0.2562820115226875
  0.0337071949818593  0.5127571517837245  0.7555662135224367
  0.4972082682323455  0.9544825525966945  0.2536148555974998
  0.5135951358537981  0.0527817588712852  0.7522139137734173
  0.5217218206238037  0.5518913281850162  0.2591991236985622
  0.4939639713891131  0.4535243722283421  0.7583808405603516
  0.0331537723239716  0.2526232429737555  0.9954259288978845
  0.9911812768522752  0.2524516654328690  0.5241464725797236
  0.0110082523597840  0.7528578281876286  0.0170851128394605
  0.0253538348278218  0.7525188452957293  0.4866353859074932
  0.4887108951343745  0.2509246355617424  0.0510289611329659
  0.5170777315228957  0.2551496643788850  0.4764376023884485
  0.5074031408881422  0.7510273727182434  0.9589702661116098
  0.4801419201650868  0.7539360289027804  0.5600400872731190
  0.2550201902598024  0.4790340993939645  0.4910644337709819
  0.2586283278576885  0.5156122015618485  0.0208056704691523
  0.2566070401939411  0.0272162112218860  0.5068464182813861
  0.2593344144172782  0.9893650376464407  0.9949931633284692
  0.7537007141670886  0.5218735197114002  0.5396403111199514
  0.7569536380423530  0.5153659579718680 -0.0012746365812163
  0.7549124811781953 -0.0013400160231255  0.4720693212023585
  0.7574158035815132  0.0059305350553745  0.0312836859607043
  0.5071274215371234  0.0005492323199833  0.9996824409175294
  0.5029370124840394  0.9986301945636797  0.5046822295613707
  0.5057702505619855  0.5004224498160267  0.0070298282158723
  0.5001651149822710  0.5062177709643146  0.5058225923073031
  0.0056555002454273  0.0034786121440560  0.0018986685277965
  0.0042406358668503  0.0009172642883874  0.5012427828391480
  0.0049555555386779  0.5013039785582311  0.0047109979977486
  0.0053457121328585  0.5048311039594617  0.5068224415850487
  0.7877672652150591  0.2587919992080688  0.2428016422234456
  0.7562999993037638  0.2419885220974398  0.7866643130663069
  0.7831444713329397  0.7790083182136849  0.7514670885907810
  0.6795277098940817  0.2173765297045409  0.2546302934440724
  0.7473924184774484  0.2655725425150142  0.6714044162371906
  0.6900259322697799  0.7089032653522139  0.7487782160521401
  0.6326236679645523  0.2325290328171094  0.1881422089046249
  0.6401400703575414  0.2492904188753742  0.3195235446207547
  0.6795995504220907  0.1366821078812345  0.2666211269968293
  0.7835537843449638  0.3432367784571362  0.2247582030172717
  0.8308285158005546  0.2454268944466499  0.3166846490022243
  0.8262754142288226  0.2169684097509317  0.1780904176778757
  0.7421758616563862  0.3462119163357705  0.6556861615019199
  0.6813398582850267  0.2319552465054008  0.6381096897731885
  0.8130024982359028  0.2393823764332746  0.6297799518054836
  0.6884268781915276  0.2766716219495416  0.8268016084917116
  0.7569533223118218  0.1565607137461657  0.7979561110830312
  0.8291018526394999  0.2760588792537620  0.8166601763007256
  0.6359951034155379  0.7319481909323222  0.6907883824634449
  0.6492615898851780  0.7093564038794700  0.8203630407209362
  0.7110714833914994  0.6321464646955389  0.7309834865034530
  0.7570145016001333  0.8588422721889898  0.7710585469472617
  0.8379370255111634  0.7498949388733828  0.8118036267657108
  0.8206589829006373  0.7785352115451657  0.6737277386746068
 
  0.00000000E+00  0.00000000E+00  0.00000000E+00
  0.00000000E+00  0.00000000E+00  0.00000000E+00
  0.00000000E+00  0.00000000E+00  0.00000000E+00
  0.00000000E+00  0.00000000E+00  0.00000000E+00
  0.00000000E+00  0.00000000E+00  0.00000000E+00
  0.00000000E+00  0.00000000E+00  0.00000000E+00
  0.00000000E+00  0.00000000E+00  0.00000000E+00
  0.00000000E+00  0.00000000E+00  0.00000000E+00
  0.00000000E+00  0.00000000E+00  0.00000000E+00
  0.00000000E+00  0.00000000E+00  0.00000000E+00
  0.00000000E+00  0.00000000E+00  0.00000000E+00
  0.00000000E+00  0.00000000E+00  0.00000000E+00
  0.00000000E+00  0.00000000E+00  0.00000000E+00
  0.00000000E+00  0.00000000E+00  0.00000000E+00
  0.00000000E+00  0.00000000E+00  0.00000000E+00
  0.00000000E+00  0.00000000E+00  0.00000000E+00
  0.00000000E+00  0.00000000E+00  0.00000000E+00
  0.00000000E+00  0.00000000E+00  0.00000000E+00
  0.00000000E+00  0.00000000E+00  0.00000000E+00
  0.00000000E+00  0.00000000E+00  0.00000000E+00
  0.00000000E+00  0.00000000E+00  0.00000000E+00
  0.00000000E+00  0.00000000E+00  0.00000000E+00
  0.00000000E+00  0.00000000E+00  0.00000000E+00
  0.00000000E+00  0.00000000E+00  0.00000000E+00
  0.00000000E+00  0.00000000E+00  0.00000000E+00
  0.00000000E+00  0.00000000E+00  0.00000000E+00
  0.00000000E+00  0.00000000E+00  0.00000000E+00
  0.00000000E+00  0.00000000E+00  0.00000000E+00
  0.00000000E+00  0.00000000E+00  0.00000000E+00
  0.00000000E+00  0.00000000E+00  0.00000000E+00
  0.00000000E+00  0.00000000E+00  0.00000000E+00
  0.00000000E+00  0.00000000E+00  0.00000000E+00
  0.00000000E+00  0.00000000E+00  0.00000000E+00
  0.00000000E+00  0.00000000E+00  0.00000000E+00
  0.00000000E+00  0.00000000E+00  0.00000000E+00
  0.00000000E+00  0.00000000E+00  0.00000000E+00
  0.00000000E+00  0.00000000E+00  0.00000000E+00
  0.00000000E+00  0.00000000E+00  0.00000000E+00
  0.00000000E+00  0.00000000E+00  0.00000000E+00
  0.00000000E+00  0.00000000E+00  0.00000000E+00
  0.00000000E+00  0.00000000E+00  0.00000000E+00
  0.00000000E+00  0.00000000E+00  0.00000000E+00
  0.00000000E+00  0.00000000E+00  0.00000000E+00
  0.00000000E+00  0.00000000E+00  0.00000000E+00
  0.00000000E+00  0.00000000E+00  0.00000000E+00
  0.00000000E+00  0.00000000E+00  0.00000000E+00
  0.00000000E+00  0.00000000E+00  0.00000000E+00
  0.00000000E+00  0.00000000E+00  0.00000000E+00
  0.00000000E+00  0.00000000E+00  0.00000000E+00
  0.00000000E+00  0.00000000E+00  0.00000000E+00
  0.00000000E+00  0.00000000E+00  0.00000000E+00
  0.00000000E+00  0.00000000E+00  0.00000000E+00
  0.00000000E+00  0.00000000E+00  0.00000000E+00
  0.00000000E+00  0.00000000E+00  0.00000000E+00
  0.00000000E+00  0.00000000E+00  0.00000000E+00
  0.00000000E+00  0.00000000E+00  0.00000000E+00
  0.00000000E+00  0.00000000E+00  0.00000000E+00
  0.00000000E+00  0.00000000E+00  0.00000000E+00
  0.00000000E+00  0.00000000E+00  0.00000000E+00
  0.00000000E+00  0.00000000E+00  0.00000000E+00
  0.00000000E+00  0.00000000E+00  0.00000000E+00
