ortho_FA0375MA0375Cs0250                
   1.00000000000000     
    11.3685287846566716   -0.0659394391588934    0.2513133337731846
    -0.0652226788930185    9.4732880301975921   -0.0178374449159534
     0.4194675866861516   -0.0269613530097112   18.9970971911302051
   Pb   I    Cs   C    N    H 
     8    24     2     6     9    33
Direct
  0.1701866347661362  0.1335655738513757  0.4376426541500140
  0.1722656673851750  0.6057505822253159  0.4426819434612538
  0.8327883257208680  0.3724640856437180  0.5504257327212496
  0.8568696515697510  0.8639171811059799  0.5523910590327530
  0.3531535837812838  0.3689429971773914  0.9342952680768227
  0.3465148693595813  0.8816152342599611  0.9406337581701674
  0.6498733541022857  0.1239563459374989  0.0574338906715799
  0.6517456705079097  0.6159550305768090  0.0573635093108020
  0.1708070188158570  0.1315781913876599  0.9922271489379408
  0.1827219936127515  0.6171539242339885  0.0035250199942004
  0.8267570461035326  0.3648761041447584  0.9990766306386786
  0.8169448150190253  0.8796388844297954  0.9912883250129304
  0.3375009185964309  0.3724866668484938  0.5029591036190311
  0.3325571953953585  0.8747912581505156  0.5007381903923348
  0.6891839997448919  0.1029180749700447  0.4916657122789815
  0.6699012484963447  0.6311560500631487  0.5040625303544447
  0.3059276463286956  0.1361749287909853  0.2876904162905039
  0.3113570316584445  0.5832913702307279  0.2946488925349021
  0.7002292610427974  0.3524480899083282  0.6943073403820105
  0.7501858804637082  0.8668241307666332  0.7067981082951927
  0.2614805111029072  0.3803752817571500  0.7838541517280369
  0.2350956767267295  0.8682593610464718  0.7987427036829552
  0.7885170736020105  0.1284355038032339  0.1953928857006263
  0.7798804040961655  0.6075520730898299  0.1965101022239781
  0.0230012895902103  0.1339432554756915  0.5939896724353929
  0.0296869171626544  0.6084359375144850  0.6016126647755003
  0.9899328838117600  0.3705821384876508  0.3869061210909016
 -0.0016886809814172  0.8665611259953316  0.3912405488417820
  0.4607026585846760  0.3717208306252631  0.1001684248517015
  0.4664473998391103  0.8643950086081018  0.1085710742920710
  0.5418723057502552  0.1253187664922683  0.8911522441127510
  0.5345036100100106  0.6318790878890113  0.8925948849401822
  0.4527762173847346  0.6396395652282665  0.6730525616250637
  0.0720590144015014  0.3685770225365071  0.1691646257274406
  0.9126857070914371  0.6030824684328752  0.8567671065890206
  0.4156825787625277  0.1029591972604589  0.6800950124550500
  0.0449658967144280  0.8711189276501924  0.1858274474716682
  0.6065649586236734  0.3847694106681399  0.3492895218833447
  0.6298360195571812  0.8738930295823741  0.3250216632776992
  0.9634089885503108  0.1922751996446170  0.8132682269761399
  0.0258769485113145  0.5890069907629341  0.8424580839360737
  0.8289433677193655  0.5825845744723442  0.8124110990858999
  0.5076224990717492  0.0501533406945787  0.6455038549620866
  0.3113494652581590  0.1153248747583108  0.6541442430652861
  0.1417914478440781  0.8396861381832437  0.2172472177470800
  0.0339849641211966  0.8706384516076495  0.1174049898851817
  0.5723903857118419  0.3514277984424393  0.2764395459508607
  0.4999062297830070  0.8651508456664235  0.3368899282671610
  0.8678890302957294  0.0912393041887264  0.8361874569773983
  0.8860601041073064  0.6364612583124819  0.9101988747880831
  0.0834597799998428  0.6064726081125169  0.8818533038184313
  0.0619435372040334  0.5581139138019846  0.7947333253243405
  0.8426239167609373  0.5498995428484325  0.7613218210247990
  0.7428884121921842  0.5964438527339097  0.8293263249186511
  0.4262122241336018  0.1396674583085313  0.7341313434769922
  0.5876024412333826  0.0479708486573207  0.6683958998543102
  0.5079800717139098  0.0272772247461298  0.5927065665216741
  0.2924711820024870  0.0773113683926080  0.6053973576026277
  0.2450923678975338  0.1584109694228501  0.6848903050766855
  0.9684088830343434  0.9013929009702202  0.2191814473360983
  0.1416994189903562  0.8434848071541375  0.2710609599818716
  0.2191315437014978  0.8140428670240870  0.1909229429944113
  0.0987406439561770  0.8345810437432326  0.0829478877970303
  0.9542554619551420  0.8914153455678182  0.0963663192771530
  0.5715256295499340  0.4415942536697812  0.2458613388807083
  0.4890346441895607  0.3035488991308767  0.2762723321747365
  0.6332831758447398  0.2835430567619920  0.2511693848066917
  0.5377738924065977  0.4490341720365206  0.3751331351549084
  0.6151982318331745  0.2860138781161998  0.3784224520268138
  0.6909340749877007  0.4420109959135274  0.3465637420570334
  0.4561342816059395  0.9478962689774956  0.3131740918359442
  0.4738042333179212  0.8690967589190802  0.3901966216473876
  0.4628959290766506  0.7717998922113097  0.3172836468141147
  0.6614217370276357  0.9749734309927354  0.3457045949124531
  0.6698858168993522  0.7875417555163254  0.3533800375781646
  0.6520499583202009  0.8656534920239459  0.2685461471516864
  0.7882056981763295  0.1412683942583588  0.8463668389383312
  0.8861441944699741  0.0382661887703014  0.8823348387141117
  0.8517257970841383  0.0153831854949253  0.7972782618165334
  0.9678057945790958  0.2767663351243312  0.8525271738467304
  0.0471560014141450  0.1361373415067237  0.8095790856619103
  0.9423690687011669  0.2345311343525574  0.7617214590660625
 
  0.00000000E+00  0.00000000E+00  0.00000000E+00
  0.00000000E+00  0.00000000E+00  0.00000000E+00
  0.00000000E+00  0.00000000E+00  0.00000000E+00
  0.00000000E+00  0.00000000E+00  0.00000000E+00
  0.00000000E+00  0.00000000E+00  0.00000000E+00
  0.00000000E+00  0.00000000E+00  0.00000000E+00
  0.00000000E+00  0.00000000E+00  0.00000000E+00
  0.00000000E+00  0.00000000E+00  0.00000000E+00
  0.00000000E+00  0.00000000E+00  0.00000000E+00
  0.00000000E+00  0.00000000E+00  0.00000000E+00
  0.00000000E+00  0.00000000E+00  0.00000000E+00
  0.00000000E+00  0.00000000E+00  0.00000000E+00
  0.00000000E+00  0.00000000E+00  0.00000000E+00
  0.00000000E+00  0.00000000E+00  0.00000000E+00
  0.00000000E+00  0.00000000E+00  0.00000000E+00
  0.00000000E+00  0.00000000E+00  0.00000000E+00
  0.00000000E+00  0.00000000E+00  0.00000000E+00
  0.00000000E+00  0.00000000E+00  0.00000000E+00
  0.00000000E+00  0.00000000E+00  0.00000000E+00
  0.00000000E+00  0.00000000E+00  0.00000000E+00
  0.00000000E+00  0.00000000E+00  0.00000000E+00
  0.00000000E+00  0.00000000E+00  0.00000000E+00
  0.00000000E+00  0.00000000E+00  0.00000000E+00
  0.00000000E+00  0.00000000E+00  0.00000000E+00
  0.00000000E+00  0.00000000E+00  0.00000000E+00
  0.00000000E+00  0.00000000E+00  0.00000000E+00
  0.00000000E+00  0.00000000E+00  0.00000000E+00
  0.00000000E+00  0.00000000E+00  0.00000000E+00
  0.00000000E+00  0.00000000E+00  0.00000000E+00
  0.00000000E+00  0.00000000E+00  0.00000000E+00
  0.00000000E+00  0.00000000E+00  0.00000000E+00
  0.00000000E+00  0.00000000E+00  0.00000000E+00
  0.00000000E+00  0.00000000E+00  0.00000000E+00
  0.00000000E+00  0.00000000E+00  0.00000000E+00
  0.00000000E+00  0.00000000E+00  0.00000000E+00
  0.00000000E+00  0.00000000E+00  0.00000000E+00
  0.00000000E+00  0.00000000E+00  0.00000000E+00
  0.00000000E+00  0.00000000E+00  0.00000000E+00
  0.00000000E+00  0.00000000E+00  0.00000000E+00
  0.00000000E+00  0.00000000E+00  0.00000000E+00
  0.00000000E+00  0.00000000E+00  0.00000000E+00
  0.00000000E+00  0.00000000E+00  0.00000000E+00
  0.00000000E+00  0.00000000E+00  0.00000000E+00
  0.00000000E+00  0.00000000E+00  0.00000000E+00
  0.00000000E+00  0.00000000E+00  0.00000000E+00
  0.00000000E+00  0.00000000E+00  0.00000000E+00
  0.00000000E+00  0.00000000E+00  0.00000000E+00
  0.00000000E+00  0.00000000E+00  0.00000000E+00
  0.00000000E+00  0.00000000E+00  0.00000000E+00
  0.00000000E+00  0.00000000E+00  0.00000000E+00
  0.00000000E+00  0.00000000E+00  0.00000000E+00
  0.00000000E+00  0.00000000E+00  0.00000000E+00
  0.00000000E+00  0.00000000E+00  0.00000000E+00
  0.00000000E+00  0.00000000E+00  0.00000000E+00
  0.00000000E+00  0.00000000E+00  0.00000000E+00
  0.00000000E+00  0.00000000E+00  0.00000000E+00
  0.00000000E+00  0.00000000E+00  0.00000000E+00
  0.00000000E+00  0.00000000E+00  0.00000000E+00
  0.00000000E+00  0.00000000E+00  0.00000000E+00
  0.00000000E+00  0.00000000E+00  0.00000000E+00
  0.00000000E+00  0.00000000E+00  0.00000000E+00
  0.00000000E+00  0.00000000E+00  0.00000000E+00
  0.00000000E+00  0.00000000E+00  0.00000000E+00
  0.00000000E+00  0.00000000E+00  0.00000000E+00
  0.00000000E+00  0.00000000E+00  0.00000000E+00
  0.00000000E+00  0.00000000E+00  0.00000000E+00
  0.00000000E+00  0.00000000E+00  0.00000000E+00
  0.00000000E+00  0.00000000E+00  0.00000000E+00
  0.00000000E+00  0.00000000E+00  0.00000000E+00
  0.00000000E+00  0.00000000E+00  0.00000000E+00
  0.00000000E+00  0.00000000E+00  0.00000000E+00
  0.00000000E+00  0.00000000E+00  0.00000000E+00
  0.00000000E+00  0.00000000E+00  0.00000000E+00
  0.00000000E+00  0.00000000E+00  0.00000000E+00
  0.00000000E+00  0.00000000E+00  0.00000000E+00
  0.00000000E+00  0.00000000E+00  0.00000000E+00
  0.00000000E+00  0.00000000E+00  0.00000000E+00
  0.00000000E+00  0.00000000E+00  0.00000000E+00
  0.00000000E+00  0.00000000E+00  0.00000000E+00
  0.00000000E+00  0.00000000E+00  0.00000000E+00
  0.00000000E+00  0.00000000E+00  0.00000000E+00
  0.00000000E+00  0.00000000E+00  0.00000000E+00
