hexa_FA0625MA0000Cs0375                 
   1.00000000000000     
    18.8838075800707337   -0.0018692453019131    0.0000681310047684
    -9.4433329801319790   14.5403507508315055    0.0010112982984376
     0.0000282332564801    0.0005561091086313    7.7926443812298425
   Pb   I    N    C    H    Cs
     8    24    10     5    25     3
Direct
  0.5002160081908090  0.5004265079567441  0.9391283842277913
  0.4960224085411767  0.9977974551901521  0.9402202576494784
  0.0012722912473784  0.5025386079971380  0.9403135301503909
  0.0017840963500689  0.9978019346292964  0.9402194360498108
  0.0018868787205521 -0.0020827858637437  0.4380732252389032
  0.0013050251452622  0.5026107721021794  0.4374302833018927
  0.4960334272033946 -0.0020855495912612  0.4380763962782888
  0.5002357686921488  0.5004703946577129  0.4387172270093004
  0.4130716327704846  0.0786839076030960  0.1892326662055832
  0.4259472720832901  0.5890017762340027  0.1887831382701405
  0.9202688990058912  0.0791336163127419  0.1890908770772117
  0.9276224215390870  0.5908245175963636  0.1887339751909260
  0.4108562683226988  0.3216826572229471  0.1895657414751198
  0.4103523839024938  0.8224905744160461  0.1895172275651004
  0.9125347093116211  0.3250212126871179  0.1894612304871883
  0.9121408572879965  0.8224938148037106  0.1895140442809140
  0.1656362634857924  0.0786873970104878  0.1892315084462293
  0.1632291117029349  0.5908356989318573  0.1887342436797975
  0.6588766574608271  0.0791331060845940  0.1890865578723682
  0.6630842607194611  0.5890044550010036  0.1887822884324290
  0.0827754130416815  0.4206179671037137  0.6887633078431137
  0.0863735682062889  0.9183554902910541  0.6892237934877888
  0.5743870467885308  0.4122989224554725  0.6888095829221325
  0.5816342639799414  0.9196662393426542  0.6892499464380862
  0.0968563335704783  0.1749068284525038  0.6894193119546774
  0.0903979315863148  0.6808143633317804  0.6893967187404763
  0.5780460013043193  0.1749053246209522  0.6894204151375650
  0.5896294204281668  0.6792723208077724  0.6895154021863259
  0.3378942221340153  0.4123062550080768  0.6888118240567517
  0.3319564863875223  0.9183502206595079  0.6892218912616170
  0.8378293627207514  0.4206371363345339  0.6887676802247109
  0.8380134672357450  0.9196813974075357  0.6892565104419702
  0.2228238240004127  0.3224116669225450  0.1865794069534024
  0.7228857360936481  0.3222357236918251  0.1865556104074921
  0.0993929321861449  0.3222698425013326  0.1865884980814443
  0.5996274207230916  0.3224360568205800  0.1866111947181873
  0.2774631594019228  0.6780388485958286  0.6865536716921424
  0.7788691351542871  0.1815095421144837  0.6866187499910990
  0.7769724432863011  0.6776880649614933  0.6865559765272830
  0.4006935894937967  0.6776697133735631  0.6865858883935062
  0.9025902597328878  0.1814944699427402  0.6866468420387363
  0.9005430569973709  0.6779999304738448  0.6865867562893110
  0.1818146216374611  0.3638608630730115  0.1864529542841505
  0.6821215770001160  0.3638592446578153  0.1864530013448215
  0.3183062679469005  0.6364735811432103  0.6864290030722260
  0.8200730901414132  0.1402315964473385  0.6865001626778501
  0.8180981300440825  0.6364588816718537  0.6864310675148425
  0.2194736451517213  0.4390474394485619  0.1862411615780995
  0.7196684733610850  0.4390436190614042  0.1862410601212472
  0.2805352306170362  0.5612937857231495  0.6862033454929967
  0.7824931803567308  0.0650957488254653  0.6862918565111839
  0.7806709653250573  0.5612816539597537  0.6862069514925165
  0.1937269359308661  0.2522097517983389  0.1868143063240265
  0.6934755246173016  0.2519088080547557  0.1868111141128222
  0.2873899863883775  0.3601504878630057  0.1865704835842476
  0.7874017956585139  0.3596182947398687  0.1865546202942157
  0.0723099147243209  0.3596728458108523  0.1866001267048544
  0.5728503892313442  0.3602012589603171  0.1866179015297825
  0.0584651269901773  0.2519508569149552  0.1868406055231635
  0.5585119741275772  0.2522484110690662  0.1868417885614694
  0.3064825432348109  0.7482730080701254  0.6868240130256279
  0.8076899332199132  0.2517717858887178  0.6868777444463481
  0.8059737578904895  0.7478956650654314  0.6868199390756711
  0.2128858525851572  0.6403094103838277  0.6865575105659690
  0.7142167250375688  0.1435640124417092  0.6866193707962822
  0.7124544822634282  0.6397209532561957  0.6865439779709329
  0.4271932478078180  0.6396781369039289  0.6865893545882590
  0.9292497276460817  0.1435292481773981  0.6866415140945961
  0.9273426903880596  0.6402465775334851  0.6866012339989070
  0.4419153398135797  0.7478700366409176  0.6868452323630916
  0.9440328914590298  0.2517434335425699  0.6869036907394745
  0.9417649724428818  0.7482222127642967  0.6868520632917418
  0.1659733237241918  0.8318270707748341  0.1857739139883000
  0.6678130217876971  0.8354564285140581  0.1857710975444858
  0.3343364366871719  0.1687765255565704  0.6857963311725194
 
  0.00000000E+00  0.00000000E+00  0.00000000E+00
  0.00000000E+00  0.00000000E+00  0.00000000E+00
  0.00000000E+00  0.00000000E+00  0.00000000E+00
  0.00000000E+00  0.00000000E+00  0.00000000E+00
  0.00000000E+00  0.00000000E+00  0.00000000E+00
  0.00000000E+00  0.00000000E+00  0.00000000E+00
  0.00000000E+00  0.00000000E+00  0.00000000E+00
  0.00000000E+00  0.00000000E+00  0.00000000E+00
  0.00000000E+00  0.00000000E+00  0.00000000E+00
  0.00000000E+00  0.00000000E+00  0.00000000E+00
  0.00000000E+00  0.00000000E+00  0.00000000E+00
  0.00000000E+00  0.00000000E+00  0.00000000E+00
  0.00000000E+00  0.00000000E+00  0.00000000E+00
  0.00000000E+00  0.00000000E+00  0.00000000E+00
  0.00000000E+00  0.00000000E+00  0.00000000E+00
  0.00000000E+00  0.00000000E+00  0.00000000E+00
  0.00000000E+00  0.00000000E+00  0.00000000E+00
  0.00000000E+00  0.00000000E+00  0.00000000E+00
  0.00000000E+00  0.00000000E+00  0.00000000E+00
  0.00000000E+00  0.00000000E+00  0.00000000E+00
  0.00000000E+00  0.00000000E+00  0.00000000E+00
  0.00000000E+00  0.00000000E+00  0.00000000E+00
  0.00000000E+00  0.00000000E+00  0.00000000E+00
  0.00000000E+00  0.00000000E+00  0.00000000E+00
  0.00000000E+00  0.00000000E+00  0.00000000E+00
  0.00000000E+00  0.00000000E+00  0.00000000E+00
  0.00000000E+00  0.00000000E+00  0.00000000E+00
  0.00000000E+00  0.00000000E+00  0.00000000E+00
  0.00000000E+00  0.00000000E+00  0.00000000E+00
  0.00000000E+00  0.00000000E+00  0.00000000E+00
  0.00000000E+00  0.00000000E+00  0.00000000E+00
  0.00000000E+00  0.00000000E+00  0.00000000E+00
  0.00000000E+00  0.00000000E+00  0.00000000E+00
  0.00000000E+00  0.00000000E+00  0.00000000E+00
  0.00000000E+00  0.00000000E+00  0.00000000E+00
  0.00000000E+00  0.00000000E+00  0.00000000E+00
  0.00000000E+00  0.00000000E+00  0.00000000E+00
  0.00000000E+00  0.00000000E+00  0.00000000E+00
  0.00000000E+00  0.00000000E+00  0.00000000E+00
  0.00000000E+00  0.00000000E+00  0.00000000E+00
  0.00000000E+00  0.00000000E+00  0.00000000E+00
  0.00000000E+00  0.00000000E+00  0.00000000E+00
  0.00000000E+00  0.00000000E+00  0.00000000E+00
  0.00000000E+00  0.00000000E+00  0.00000000E+00
  0.00000000E+00  0.00000000E+00  0.00000000E+00
  0.00000000E+00  0.00000000E+00  0.00000000E+00
  0.00000000E+00  0.00000000E+00  0.00000000E+00
  0.00000000E+00  0.00000000E+00  0.00000000E+00
  0.00000000E+00  0.00000000E+00  0.00000000E+00
  0.00000000E+00  0.00000000E+00  0.00000000E+00
  0.00000000E+00  0.00000000E+00  0.00000000E+00
  0.00000000E+00  0.00000000E+00  0.00000000E+00
  0.00000000E+00  0.00000000E+00  0.00000000E+00
  0.00000000E+00  0.00000000E+00  0.00000000E+00
  0.00000000E+00  0.00000000E+00  0.00000000E+00
  0.00000000E+00  0.00000000E+00  0.00000000E+00
  0.00000000E+00  0.00000000E+00  0.00000000E+00
  0.00000000E+00  0.00000000E+00  0.00000000E+00
  0.00000000E+00  0.00000000E+00  0.00000000E+00
  0.00000000E+00  0.00000000E+00  0.00000000E+00
  0.00000000E+00  0.00000000E+00  0.00000000E+00
  0.00000000E+00  0.00000000E+00  0.00000000E+00
  0.00000000E+00  0.00000000E+00  0.00000000E+00
  0.00000000E+00  0.00000000E+00  0.00000000E+00
  0.00000000E+00  0.00000000E+00  0.00000000E+00
  0.00000000E+00  0.00000000E+00  0.00000000E+00
  0.00000000E+00  0.00000000E+00  0.00000000E+00
  0.00000000E+00  0.00000000E+00  0.00000000E+00
  0.00000000E+00  0.00000000E+00  0.00000000E+00
  0.00000000E+00  0.00000000E+00  0.00000000E+00
  0.00000000E+00  0.00000000E+00  0.00000000E+00
  0.00000000E+00  0.00000000E+00  0.00000000E+00
  0.00000000E+00  0.00000000E+00  0.00000000E+00
  0.00000000E+00  0.00000000E+00  0.00000000E+00
  0.00000000E+00  0.00000000E+00  0.00000000E+00
