cubic_FA0500MA0000Cs0500                
   1.00000000000000     
    12.7395315476525894   -0.1453342543247551    0.1718142575428669
    -0.1440566001589191   12.7418699619226352   -0.0886353122503448
     0.1699045614007162   -0.0879534277157049   12.7494968450583794
   Cs   I    Pb   C    N    H 
     4    24     8     4     8    20
Direct
  0.2475657272593598  0.2501162666418553  0.7503829163428928
  0.7519823431473247  0.2535035714013245  0.7478549608278958
  0.7659792062766095  0.7449742615980794  0.2481224242820952
  0.7621093965535217  0.7447762881712084  0.7471471187375511
 -0.0048935251826481 -0.0130354259706793  0.2406931284310181
 -0.0073420709895844 -0.0109033009056369  0.7406461519910081
 -0.0152741173668670  0.4959787470439426  0.2473807959612446
 -0.0170911123106322  0.5011495127523283  0.7472502735198551
  0.5138157949769574 -0.0183625782465378  0.2462406053375488
  0.5166319240578265 -0.0140708668736081  0.7464278232413748
  0.5018325825886463  0.4642606857500191  0.2493058411381504
  0.5285424763874279  0.4924103002721940  0.7499292460671814
 -0.0003649331582692  0.2524521740545451 -0.0241865587897774
  0.0057291053698643  0.2515774423380203  0.5185374035986371
 -0.0175167305885511  0.7523471519852778 -0.0156883131391878
 -0.0143362927274320  0.7510981601086019  0.4838556955315589
  0.4989635022143631  0.2407832165103409 -0.0284567197701972
  0.5062949320936349  0.2395626697098265  0.5228651694253740
  0.4959223084044738  0.7392186848582271  0.0121046713811232
  0.5015331114023018  0.7386413578880345  0.5036628858008461
  0.2552343114114901  0.5096835505679339  0.5133362964329452
  0.2499118844757255  0.5146675715921882  0.9879218385322475
  0.2523761145416488  0.0004322957479128  0.4835310706827351
  0.2448898976705326  0.0048826188889172  0.9753982488053887
  0.7540349674171165  0.5000299528960674  0.4950682705211906
  0.7476063270916660  0.5020695108931823  0.0043855553467922
  0.7527336038769715  0.9864454709341123  0.4981992774547351
  0.7444826621731400  0.9891726762173106  0.9934542474638985
  0.4923972315315308 -0.0097677992517573 -0.0087134996422510
  0.5029720807475595 -0.0077884814344235  0.4962834324744981
  0.5008028124071522  0.4886985728214137 -0.0036028592342879
  0.5067648047786594  0.4850669911178349  0.5016456403755895
 -0.0050224332195389  0.0053291239516877 -0.0085522870803284
  0.0034130059482096  0.0013600395662101  0.4935240532958919
  0.0008071084242101  0.5022792407958350 -0.0031332677689245
  0.0080657455024464  0.5041057278327473  0.5013155831512576
  0.2441757764820770  0.7546364346788023  0.2613592766580707
  0.7526320210158970  0.2648993142017878  0.2505495350262241
  0.2445675932328169  0.7523127546232783  0.7627929368637524
  0.2454242981117691  0.2453676340523191  0.2495959182755514
  0.3319857466135399  0.7030464492180026  0.2659895046950734
  0.2020689546830525  0.7843587266631290  0.1740368352544396
  0.8114193602802326  0.2136003942833981  0.3145503607686355
  0.6957223752059767  0.2202094036925409  0.1773101211154639
  0.3369306318504209  0.7087011447747007  0.7584735630891446
  0.1975160091952203  0.7907646619919295  0.6818940300056696
  0.3417247682261298  0.2110859771348226  0.2537072006866172
  0.2227908299887809  0.3452017201297132  0.2458470471735091
  0.2025646285455810  0.7738799304441840  0.3349925138033770
  0.3621113760088244  0.6865146353977679  0.3372922876024380
  0.3773176073209614  0.6874377372806310  0.2001939629971133
  0.2358399437568869  0.7697120873532481  0.1020021504595668
  0.1347488503578438  0.8267207392965108  0.1770479013011252
  0.7510550905543774  0.3503479427150079  0.2590287856004322
  0.8549934054804870  0.2526126172071457  0.3697969700281036
  0.8164805517693839  0.1336345686483635  0.3124950341114263
  0.6944321310328799  0.1407780626622288  0.1630348660459691
  0.6513571082086206  0.2642534849555129  0.1297911053296576
  0.2030802908480153  0.7566414916423148  0.8388544188245158
  0.3681058250812131  0.6811311652029658  0.8253800783139731
  0.3811166773240524  0.7033111781138434  0.6902023203467211
  0.2313642044533492  0.7925502455334259  0.6084660273726413
  0.1281153528706759  0.8289272405787225  0.6929245795742494
  0.1807556417994618  0.1874487719516549  0.2492304275703362
  0.3568402391087324  0.1327919923017611  0.2573194033628722
  0.4047036523092552  0.2624938242239798  0.2547941956645011
  0.2809122400564266  0.4021146864514008  0.2466940531607909
  0.1467605484537987  0.3696559368796032  0.2431850001847002
 
  0.00000000E+00  0.00000000E+00  0.00000000E+00
  0.00000000E+00  0.00000000E+00  0.00000000E+00
  0.00000000E+00  0.00000000E+00  0.00000000E+00
  0.00000000E+00  0.00000000E+00  0.00000000E+00
  0.00000000E+00  0.00000000E+00  0.00000000E+00
  0.00000000E+00  0.00000000E+00  0.00000000E+00
  0.00000000E+00  0.00000000E+00  0.00000000E+00
  0.00000000E+00  0.00000000E+00  0.00000000E+00
  0.00000000E+00  0.00000000E+00  0.00000000E+00
  0.00000000E+00  0.00000000E+00  0.00000000E+00
  0.00000000E+00  0.00000000E+00  0.00000000E+00
  0.00000000E+00  0.00000000E+00  0.00000000E+00
  0.00000000E+00  0.00000000E+00  0.00000000E+00
  0.00000000E+00  0.00000000E+00  0.00000000E+00
  0.00000000E+00  0.00000000E+00  0.00000000E+00
  0.00000000E+00  0.00000000E+00  0.00000000E+00
  0.00000000E+00  0.00000000E+00  0.00000000E+00
  0.00000000E+00  0.00000000E+00  0.00000000E+00
  0.00000000E+00  0.00000000E+00  0.00000000E+00
  0.00000000E+00  0.00000000E+00  0.00000000E+00
  0.00000000E+00  0.00000000E+00  0.00000000E+00
  0.00000000E+00  0.00000000E+00  0.00000000E+00
  0.00000000E+00  0.00000000E+00  0.00000000E+00
  0.00000000E+00  0.00000000E+00  0.00000000E+00
  0.00000000E+00  0.00000000E+00  0.00000000E+00
  0.00000000E+00  0.00000000E+00  0.00000000E+00
  0.00000000E+00  0.00000000E+00  0.00000000E+00
  0.00000000E+00  0.00000000E+00  0.00000000E+00
  0.00000000E+00  0.00000000E+00  0.00000000E+00
  0.00000000E+00  0.00000000E+00  0.00000000E+00
  0.00000000E+00  0.00000000E+00  0.00000000E+00
  0.00000000E+00  0.00000000E+00  0.00000000E+00
  0.00000000E+00  0.00000000E+00  0.00000000E+00
  0.00000000E+00  0.00000000E+00  0.00000000E+00
  0.00000000E+00  0.00000000E+00  0.00000000E+00
  0.00000000E+00  0.00000000E+00  0.00000000E+00
  0.00000000E+00  0.00000000E+00  0.00000000E+00
  0.00000000E+00  0.00000000E+00  0.00000000E+00
  0.00000000E+00  0.00000000E+00  0.00000000E+00
  0.00000000E+00  0.00000000E+00  0.00000000E+00
  0.00000000E+00  0.00000000E+00  0.00000000E+00
  0.00000000E+00  0.00000000E+00  0.00000000E+00
  0.00000000E+00  0.00000000E+00  0.00000000E+00
  0.00000000E+00  0.00000000E+00  0.00000000E+00
  0.00000000E+00  0.00000000E+00  0.00000000E+00
  0.00000000E+00  0.00000000E+00  0.00000000E+00
  0.00000000E+00  0.00000000E+00  0.00000000E+00
  0.00000000E+00  0.00000000E+00  0.00000000E+00
  0.00000000E+00  0.00000000E+00  0.00000000E+00
  0.00000000E+00  0.00000000E+00  0.00000000E+00
  0.00000000E+00  0.00000000E+00  0.00000000E+00
  0.00000000E+00  0.00000000E+00  0.00000000E+00
  0.00000000E+00  0.00000000E+00  0.00000000E+00
  0.00000000E+00  0.00000000E+00  0.00000000E+00
  0.00000000E+00  0.00000000E+00  0.00000000E+00
  0.00000000E+00  0.00000000E+00  0.00000000E+00
  0.00000000E+00  0.00000000E+00  0.00000000E+00
  0.00000000E+00  0.00000000E+00  0.00000000E+00
  0.00000000E+00  0.00000000E+00  0.00000000E+00
  0.00000000E+00  0.00000000E+00  0.00000000E+00
  0.00000000E+00  0.00000000E+00  0.00000000E+00
  0.00000000E+00  0.00000000E+00  0.00000000E+00
  0.00000000E+00  0.00000000E+00  0.00000000E+00
  0.00000000E+00  0.00000000E+00  0.00000000E+00
  0.00000000E+00  0.00000000E+00  0.00000000E+00
  0.00000000E+00  0.00000000E+00  0.00000000E+00
  0.00000000E+00  0.00000000E+00  0.00000000E+00
  0.00000000E+00  0.00000000E+00  0.00000000E+00
