cubic_FA0000MA0250Cs0750                
   1.00000000000000     
    12.6556787279606571    0.0115340297520951    0.1021403118977027
     0.0117598844769439   12.5794088876937131    0.0050606673888170
     0.1023392428063908    0.0039781949511336   12.7344463920225124
   Cs   I    Pb   C    N    H 
     6    24     8     2     2    12
Direct
  0.2453149034256617  0.2507652543341166  0.2394644457959482
  0.2273688868047720  0.2521398506637597  0.7793075674430557
  0.2535388282858800  0.7469181815746415  0.2459588651549965
  0.2442292212405983  0.7532440396087555  0.7764609401153573
  0.7523670813951150  0.2490281418529195  0.2386872477965420
  0.7764004082147854  0.7561173480267604  0.2335355470363654
  0.0222019694435985  0.9882362474511177  0.2570938031518225
  0.0106660085079844  0.0055573260947806  0.7562476127709080
  0.0307083371354526  0.5082847170194386  0.2572520448802642
  0.0020270845563636  0.4965222462232261  0.7567065777869301
  0.4860427596456563  0.0534468857195553  0.2490400906281120
  0.5261597492463470  0.9543757703721506  0.7460430757795840
  0.4757857137266520  0.4560061966227938  0.2505924844700872
  0.5249814992353563  0.5374570076363679  0.7486656877803580
  0.0141993513025015  0.2508244415100255  0.0271965193793107
  0.0695954603970304  0.2474110723192064  0.5013658462391851
  0.0151017619389217  0.7508036717952952  0.0115668883651869
  0.9351918431920404  0.7469565958840170  0.5052484749065854
  0.5009470619138431  0.2518291373946677  0.9440040304346889
  0.4395615550557137  0.2500249645299922  0.5448400522058193
  0.5041980870965028  0.7523373694464000  0.0505666403986911
  0.5505769494762978  0.7501752946453785  0.4502984554940193
  0.2497799278031993  0.5691955004667599  0.5169114448193406
  0.2574091745313822  0.5042282007243082  0.9821215364679995
  0.2515477729625292  0.9286386016878753  0.5096945521283663
  0.2574708321243948  0.0000873382140987 -0.0084942694919064
  0.7494052453090999  0.4415413923342861  0.4906434227358244
  0.7553440596689407  0.4990319956533920  0.0446394230759710
  0.7515843619227663  0.0516699315121045  0.4871574367712703
  0.7557177286666167  0.0061461576614260  0.0354926065450298
  0.5071409030753234  0.0032387227098199 -0.0009421327148404
  0.4938877893698546 -0.0000526858530562  0.4967942933789852
  0.5072371545494444  0.5024444077688257  0.0016894275587675
  0.4931484441238059  0.5011586041422211  0.4973630244901514
  0.0042465589762361  0.0010513355461840  0.0050729585642555
  0.0050891940251056  0.9997449649001738  0.5054741765773947
  0.0036846057761158  0.5006647732158387  0.0057939637550837
  0.0036202763601993  0.4969261594921552  0.5058501481705703
  0.7733517737558568  0.2526844850693800  0.7821620385132395
  0.7694794911076515  0.7621710192354251  0.7946132416573209
  0.6998713771938557  0.2420811105062975  0.6928607062860709
  0.7174097760081726  0.7384505044633199  0.6933229148353229
  0.7033074527868738  0.3083571788852879  0.6435713947933095
  0.6225416665881650  0.2330102268259222  0.7183292661850790
  0.7187223311831143  0.1770573168661792  0.6447049191767635
  0.7477008558260808  0.3197295547464573  0.8312551899018263
  0.7718011406311505  0.1791725380962219  0.8286449789967476
  0.8533635737203276  0.2671630884509383  0.7510523155123962
  0.6647881911773396  0.7987179455286965  0.6742512042108899
  0.6726546565051386  0.6689035460797754  0.6986521474330647
  0.7727377192804457  0.7312460250336205  0.6319744710857111
  0.7082921914344529  0.7706961090437126  0.8558367740565622
  0.8230211397235034  0.6967485830051035  0.8136790403062084
  0.8139215510867686  0.8362891142561346  0.7862725622163329
 
  0.00000000E+00  0.00000000E+00  0.00000000E+00
  0.00000000E+00  0.00000000E+00  0.00000000E+00
  0.00000000E+00  0.00000000E+00  0.00000000E+00
  0.00000000E+00  0.00000000E+00  0.00000000E+00
  0.00000000E+00  0.00000000E+00  0.00000000E+00
  0.00000000E+00  0.00000000E+00  0.00000000E+00
  0.00000000E+00  0.00000000E+00  0.00000000E+00
  0.00000000E+00  0.00000000E+00  0.00000000E+00
  0.00000000E+00  0.00000000E+00  0.00000000E+00
  0.00000000E+00  0.00000000E+00  0.00000000E+00
  0.00000000E+00  0.00000000E+00  0.00000000E+00
  0.00000000E+00  0.00000000E+00  0.00000000E+00
  0.00000000E+00  0.00000000E+00  0.00000000E+00
  0.00000000E+00  0.00000000E+00  0.00000000E+00
  0.00000000E+00  0.00000000E+00  0.00000000E+00
  0.00000000E+00  0.00000000E+00  0.00000000E+00
  0.00000000E+00  0.00000000E+00  0.00000000E+00
  0.00000000E+00  0.00000000E+00  0.00000000E+00
  0.00000000E+00  0.00000000E+00  0.00000000E+00
  0.00000000E+00  0.00000000E+00  0.00000000E+00
  0.00000000E+00  0.00000000E+00  0.00000000E+00
  0.00000000E+00  0.00000000E+00  0.00000000E+00
  0.00000000E+00  0.00000000E+00  0.00000000E+00
  0.00000000E+00  0.00000000E+00  0.00000000E+00
  0.00000000E+00  0.00000000E+00  0.00000000E+00
  0.00000000E+00  0.00000000E+00  0.00000000E+00
  0.00000000E+00  0.00000000E+00  0.00000000E+00
  0.00000000E+00  0.00000000E+00  0.00000000E+00
  0.00000000E+00  0.00000000E+00  0.00000000E+00
  0.00000000E+00  0.00000000E+00  0.00000000E+00
  0.00000000E+00  0.00000000E+00  0.00000000E+00
  0.00000000E+00  0.00000000E+00  0.00000000E+00
  0.00000000E+00  0.00000000E+00  0.00000000E+00
  0.00000000E+00  0.00000000E+00  0.00000000E+00
  0.00000000E+00  0.00000000E+00  0.00000000E+00
  0.00000000E+00  0.00000000E+00  0.00000000E+00
  0.00000000E+00  0.00000000E+00  0.00000000E+00
  0.00000000E+00  0.00000000E+00  0.00000000E+00
  0.00000000E+00  0.00000000E+00  0.00000000E+00
  0.00000000E+00  0.00000000E+00  0.00000000E+00
  0.00000000E+00  0.00000000E+00  0.00000000E+00
  0.00000000E+00  0.00000000E+00  0.00000000E+00
  0.00000000E+00  0.00000000E+00  0.00000000E+00
  0.00000000E+00  0.00000000E+00  0.00000000E+00
  0.00000000E+00  0.00000000E+00  0.00000000E+00
  0.00000000E+00  0.00000000E+00  0.00000000E+00
  0.00000000E+00  0.00000000E+00  0.00000000E+00
  0.00000000E+00  0.00000000E+00  0.00000000E+00
  0.00000000E+00  0.00000000E+00  0.00000000E+00
  0.00000000E+00  0.00000000E+00  0.00000000E+00
  0.00000000E+00  0.00000000E+00  0.00000000E+00
  0.00000000E+00  0.00000000E+00  0.00000000E+00
  0.00000000E+00  0.00000000E+00  0.00000000E+00
  0.00000000E+00  0.00000000E+00  0.00000000E+00
