ortho_FA0000MA0750Cs0250                
   1.00000000000000     
    11.1600122487432909    0.0585916968391026    0.1918454989090643
     0.0570861140261127    9.5439607835457476   -0.0416393561568745
     0.3196801870924930   -0.0797210283822661   18.6464265341742568
   Pb   I    Cs   C    N    H 
     8    24     2     6     6    36
Direct
  0.1789214121992973  0.1183084522230229  0.4460786075160426
  0.1785875544182260  0.6185902453487848  0.4476725000193846
  0.8630586988113378  0.3744591772430180  0.5645107082630283
  0.8572679118565412  0.8726745897990204  0.5664555194984582
  0.3307617411670756  0.3706585128529803  0.9421635949886441
  0.3355539947523719  0.8651387806376267  0.9428661218939842
  0.6537900737640799  0.1245584429553170  0.0557676138033085
  0.6579497760653379  0.6277854393229915  0.0553284426738930
  0.1656414141120573  0.1204888952501370  0.0122461645245345
  0.1629880129446745  0.6247140116598500  0.0099679936947276
  0.8266364169079856  0.3708305589387280  0.9859759581219032
  0.8327311891054996  0.8756148849651371  0.9913182888807305
  0.3504492306677205  0.3688495112724382  0.4989102489041944
  0.3493935761468803  0.8685063134238409  0.5086205495333765
  0.6993191432484261  0.1254261513484692  0.5088400701324119
  0.6900780164666822  0.6244262931372943  0.5167562594834910
  0.3097559092490532  0.1030464466028731  0.2919983914107626
  0.3149651808322887  0.6274561281951598  0.2917653407877037
  0.7340601180871548  0.3811561104054134  0.7168023635187265
  0.7148866434750406  0.8677629477519802  0.7152181720361328
  0.2368854810106579  0.3725347540649409  0.7909864938517897
  0.2407993092819609  0.8546128711936711  0.7911520500062671
  0.7803697417525947  0.1313039351028616  0.2065302232301643
  0.7956996558657715  0.6342070201131433  0.1986243396593312
  0.0505236664851493  0.1228346902223599  0.6104725689347046
  0.0545624518238562  0.6227641478869266  0.6087119000324149
  0.9971616257053407  0.3721756121895404  0.3991559576410852
  0.9935540302993923  0.8711989756249344  0.3986929732571288
  0.4757958176332437  0.3801006145018512  0.1049675743843765
  0.4718437853842643  0.8760166509025361  0.1044496500888359
  0.5220973271816809  0.1176295221936327  0.8984042737106686
  0.5225463341141953  0.6165629470306260  0.8964416728466637
  0.4434427762079073  0.6069173290246853  0.6709971151460530
  0.0840519171774675  0.8708749723849554  0.1842799734894171
  0.9685445236891651  0.1297940802574307  0.8256069537579858
  0.9658797099620798  0.6340911221785382  0.8223980732394391
  0.4721623843540922  0.1734899078227461  0.6708744491886626
  0.6206405102221705  0.4054907468774904  0.3532740633777303
  0.6139208053437708  0.8690213120941412  0.3571956968814645
  0.1074943055701389  0.4047248965100447  0.1908691636205391
  0.8358311050094225  0.1268099823728739  0.8354548132963130
  0.8353983498782802  0.6341155993054824  0.8410725638313712
  0.3631712131524057  0.0861557677479782  0.6666603649989903
  0.5400486277981263  0.3574489589001266  0.2964090711401592
  0.5621051721641571  0.8566173106641726  0.2851457454556878
  0.0178745751109748  0.3513163181779993  0.1403690500760003
  0.7936938698754389  0.1592291827541642  0.7891714149092679
  0.8075180786560361  0.1953975902213000  0.8764421190265334
  0.8049961177096545  0.0283046111004209  0.8487274485729845
  0.9943728019386968  0.2334384712297249  0.8060259325366824
  0.0092036801071306  0.1102384529606404  0.8773016865188955
  0.9975177820858862  0.0497564297990946  0.7861641811872383
  0.7851131733770362  0.6552998340579693  0.7962548001550488
  0.8141461150618154  0.7106685533212608  0.8798066254525323
  0.8083984100941436  0.5389215764347658  0.8620450572126417
  0.9879917916773141  0.7334406429495119  0.7964593446068484
  0.0159564478702321  0.6230367719710813  0.8715981721846056
  0.9871357656812190  0.5471738364927413  0.7853023746497907
  0.2858368101837457  0.1460711281127928  0.6618694907835153
  0.3481063735983467  0.0248517064738868  0.7124588237171668
  0.3674768290592188  0.0181567693269420  0.6222911981792978
  0.4603527166380590  0.2442015190075946  0.7171705867833570
  0.5504320017075751  0.1051803739016737  0.6773362809188898
  0.4827103582612204  0.2321202531759327  0.6208416561961189
  0.4808956136081691  0.4376687478564065  0.2820506265942398
  0.4847314026515485  0.2749602500664958  0.3124546021969697
  0.5884595599945640  0.3235085461770383  0.2509830205783322
  0.5654775957049730  0.4456046304718552  0.3987387226732461
  0.6759683739569330  0.3171732031373972  0.3704399827706578
  0.6783107486391773  0.4877194293577570  0.3309718700147117
  0.5226998601550724  0.9499663446364042  0.2695229032599381
  0.4926287125603818  0.7830347804625403  0.2852274623694851
  0.6267267145962386  0.8252558756138252  0.2466755138004751
  0.5420623885136816  0.8977102899924021  0.3962573361672682
  0.6531417747719074  0.7677557485496007  0.3715605596213634
  0.6835153005926101  0.9489981853372840  0.3557766260051175
  0.9808132528883561  0.4309384772302781  0.1107048587636646
  0.9463032816332305  0.3005775213994240  0.1666852861590238
  0.0571809485589166  0.2799420036697111  0.1034065002129914
  0.0634894054934098  0.4819782700971403  0.2269526143735069
  0.1423094904134326  0.3175816982150177  0.2222693575041603
  0.1810008097479085  0.4525556865018042  0.1597014099035932
 
  0.00000000E+00  0.00000000E+00  0.00000000E+00
  0.00000000E+00  0.00000000E+00  0.00000000E+00
  0.00000000E+00  0.00000000E+00  0.00000000E+00
  0.00000000E+00  0.00000000E+00  0.00000000E+00
  0.00000000E+00  0.00000000E+00  0.00000000E+00
  0.00000000E+00  0.00000000E+00  0.00000000E+00
  0.00000000E+00  0.00000000E+00  0.00000000E+00
  0.00000000E+00  0.00000000E+00  0.00000000E+00
  0.00000000E+00  0.00000000E+00  0.00000000E+00
  0.00000000E+00  0.00000000E+00  0.00000000E+00
  0.00000000E+00  0.00000000E+00  0.00000000E+00
  0.00000000E+00  0.00000000E+00  0.00000000E+00
  0.00000000E+00  0.00000000E+00  0.00000000E+00
  0.00000000E+00  0.00000000E+00  0.00000000E+00
  0.00000000E+00  0.00000000E+00  0.00000000E+00
  0.00000000E+00  0.00000000E+00  0.00000000E+00
  0.00000000E+00  0.00000000E+00  0.00000000E+00
  0.00000000E+00  0.00000000E+00  0.00000000E+00
  0.00000000E+00  0.00000000E+00  0.00000000E+00
  0.00000000E+00  0.00000000E+00  0.00000000E+00
  0.00000000E+00  0.00000000E+00  0.00000000E+00
  0.00000000E+00  0.00000000E+00  0.00000000E+00
  0.00000000E+00  0.00000000E+00  0.00000000E+00
  0.00000000E+00  0.00000000E+00  0.00000000E+00
  0.00000000E+00  0.00000000E+00  0.00000000E+00
  0.00000000E+00  0.00000000E+00  0.00000000E+00
  0.00000000E+00  0.00000000E+00  0.00000000E+00
  0.00000000E+00  0.00000000E+00  0.00000000E+00
  0.00000000E+00  0.00000000E+00  0.00000000E+00
  0.00000000E+00  0.00000000E+00  0.00000000E+00
  0.00000000E+00  0.00000000E+00  0.00000000E+00
  0.00000000E+00  0.00000000E+00  0.00000000E+00
  0.00000000E+00  0.00000000E+00  0.00000000E+00
  0.00000000E+00  0.00000000E+00  0.00000000E+00
  0.00000000E+00  0.00000000E+00  0.00000000E+00
  0.00000000E+00  0.00000000E+00  0.00000000E+00
  0.00000000E+00  0.00000000E+00  0.00000000E+00
  0.00000000E+00  0.00000000E+00  0.00000000E+00
  0.00000000E+00  0.00000000E+00  0.00000000E+00
  0.00000000E+00  0.00000000E+00  0.00000000E+00
  0.00000000E+00  0.00000000E+00  0.00000000E+00
  0.00000000E+00  0.00000000E+00  0.00000000E+00
  0.00000000E+00  0.00000000E+00  0.00000000E+00
  0.00000000E+00  0.00000000E+00  0.00000000E+00
  0.00000000E+00  0.00000000E+00  0.00000000E+00
  0.00000000E+00  0.00000000E+00  0.00000000E+00
  0.00000000E+00  0.00000000E+00  0.00000000E+00
  0.00000000E+00  0.00000000E+00  0.00000000E+00
  0.00000000E+00  0.00000000E+00  0.00000000E+00
  0.00000000E+00  0.00000000E+00  0.00000000E+00
  0.00000000E+00  0.00000000E+00  0.00000000E+00
  0.00000000E+00  0.00000000E+00  0.00000000E+00
  0.00000000E+00  0.00000000E+00  0.00000000E+00
  0.00000000E+00  0.00000000E+00  0.00000000E+00
  0.00000000E+00  0.00000000E+00  0.00000000E+00
  0.00000000E+00  0.00000000E+00  0.00000000E+00
  0.00000000E+00  0.00000000E+00  0.00000000E+00
  0.00000000E+00  0.00000000E+00  0.00000000E+00
  0.00000000E+00  0.00000000E+00  0.00000000E+00
  0.00000000E+00  0.00000000E+00  0.00000000E+00
  0.00000000E+00  0.00000000E+00  0.00000000E+00
  0.00000000E+00  0.00000000E+00  0.00000000E+00
  0.00000000E+00  0.00000000E+00  0.00000000E+00
  0.00000000E+00  0.00000000E+00  0.00000000E+00
  0.00000000E+00  0.00000000E+00  0.00000000E+00
  0.00000000E+00  0.00000000E+00  0.00000000E+00
  0.00000000E+00  0.00000000E+00  0.00000000E+00
  0.00000000E+00  0.00000000E+00  0.00000000E+00
  0.00000000E+00  0.00000000E+00  0.00000000E+00
  0.00000000E+00  0.00000000E+00  0.00000000E+00
  0.00000000E+00  0.00000000E+00  0.00000000E+00
  0.00000000E+00  0.00000000E+00  0.00000000E+00
  0.00000000E+00  0.00000000E+00  0.00000000E+00
  0.00000000E+00  0.00000000E+00  0.00000000E+00
  0.00000000E+00  0.00000000E+00  0.00000000E+00
  0.00000000E+00  0.00000000E+00  0.00000000E+00
  0.00000000E+00  0.00000000E+00  0.00000000E+00
  0.00000000E+00  0.00000000E+00  0.00000000E+00
  0.00000000E+00  0.00000000E+00  0.00000000E+00
  0.00000000E+00  0.00000000E+00  0.00000000E+00
  0.00000000E+00  0.00000000E+00  0.00000000E+00
  0.00000000E+00  0.00000000E+00  0.00000000E+00
