cubic_FA0375MA0000Cs0625                
   1.00000000000000     
    12.7112484931337484   -0.1447691362536444    0.0790904056292457
    -0.1464923849563627   12.6981365369854071   -0.1173708065181386
     0.0780501050499046   -0.1155886152222849   12.7367530768703752
   Cs   I    Pb   C    N    H 
     5    24     8     3     6    15
Direct
  0.2575150763756166  0.2668161088559122  0.2423241439898847
  0.2519829132197007  0.2520387620763310  0.7503752514575007
  0.7546650565958369  0.2537627732042014  0.2338123266982120
  0.7567861830804374  0.2515573591399722  0.7498841641905174
  0.7604535349771033  0.7445933536216960  0.7423230415646110
  0.9985715771945205  0.0184328535811629  0.2365690191375033
  0.9678848275505589  0.9946993115402081  0.7369555959187180
  0.0188596443718228  0.4753285652111900  0.2404805282633330
  0.9862104375443902  0.5074381888351982  0.7411335853264941
  0.5010328378516767  0.0145621278192236  0.2427646646094263
  0.5289964535827264  0.0010943097595173  0.7425885321146535
  0.5122229764065926  0.4742863306432296  0.2476811727514434
  0.5412004624193998  0.5020046718157741  0.7476581496801009
  0.0159224891193482  0.2533894073721463  0.9702630035819882
  0.0496195500483812  0.2519791007404370  0.5053347258924057
  0.9746817799389332  0.7538602601359516  0.9924669207920961
  0.9781855331320771  0.7515536616770211  0.4859714210392964
  0.4839606892125607  0.2498183417416528  0.9847200866287489
  0.4607954148254652  0.2498570012911493  0.5094652835459560
  0.5019889935664469  0.7495441341818893  0.0064489707264268
  0.5392820244727207  0.7509553029098477  0.5075472402957920
  0.2638649142747420  0.5300457800754831  0.4848997255523705
  0.2591096531747500  0.4990591130522396  0.9746399137996018
  0.2505474996927610  0.9717464544284298  0.5070127108665503
  0.2498509570086176  0.0034023543730367  0.9778097338659167
  0.7616652821864469  0.4662220649799917  0.4739991203257814
  0.7584429998099071  0.4725998354757646  0.0015491854911038
  0.7521660531574093  0.0567095402379776  0.4819117305395224
  0.7503046854251857  0.0330968229256748  0.9971835479149449
  0.5012931588678103  0.0019967953565214  0.9891735685513575
  0.5038656088038252  0.0027966653161873  0.4944272303108509
  0.5108777268272885  0.4972118395317626  0.9976409712451427
  0.5114051599771253  0.4960879937527686  0.4993034426339131
  0.9993461175623397  0.0053856706804486  0.9841377345625072
  0.9982926533718544  0.0048457606906306  0.4889857523916604
  0.0085146498745996  0.5028723328621205  0.9917366932424135
  0.0129800479917170  0.5015771051579522  0.4934763570574560
  0.2500558424988900  0.7416505134769426  0.7712895164742689
  0.7295871103408902  0.7474458076909444  0.2616627664696576
  0.2426618703072903  0.7523082546966523  0.2642424859446253
  0.3493062600058910  0.7328041907918560  0.7427771632066633
  0.1778501007175736  0.7863951476340350  0.7156803267161634
  0.8036953096606337  0.6769589194397045  0.2588189363778620
  0.7361766094031158  0.8409016213530253  0.2192446151356691
  0.3295545240465736  0.7000217787445411  0.2480418102280398
  0.2084920431465355  0.8264339348131989  0.2035756570152894
  0.2263157038026549  0.7078738120834958  0.8465193901064372
  0.3998733287851520  0.6969161920241305  0.7916226687714069
  0.3795854882554809  0.7588818721631959  0.6727076518198825
  0.1947384267109497  0.8243808007358954  0.6464872438673676
  0.1030828566350991  0.7920228752219244  0.7446823691258151
  0.6566588407915048  0.7267535056318140  0.3037074287103077
  0.7939635600512547  0.6086649092340840  0.2997348840918649
  0.8745339166134849  0.6897168672321419  0.2219830501078042
  0.8023781717066704  0.8680504213556984  0.1811166722913109
  0.6732583598700871  0.8902474657047519  0.2241851990798969
  0.1950786528284356  0.7320149568441896  0.3334053936240643
  0.3479917001847220  0.6413793983492754  0.2982238457557567
  0.3785975764692195  0.7134735185426460  0.1846840201471940
  0.2480912361135352  0.8518939803170114  0.1378131309737884
  0.1414995997940024  0.8662786566756903  0.2232793484720925
 
  0.00000000E+00  0.00000000E+00  0.00000000E+00
  0.00000000E+00  0.00000000E+00  0.00000000E+00
  0.00000000E+00  0.00000000E+00  0.00000000E+00
  0.00000000E+00  0.00000000E+00  0.00000000E+00
  0.00000000E+00  0.00000000E+00  0.00000000E+00
  0.00000000E+00  0.00000000E+00  0.00000000E+00
  0.00000000E+00  0.00000000E+00  0.00000000E+00
  0.00000000E+00  0.00000000E+00  0.00000000E+00
  0.00000000E+00  0.00000000E+00  0.00000000E+00
  0.00000000E+00  0.00000000E+00  0.00000000E+00
  0.00000000E+00  0.00000000E+00  0.00000000E+00
  0.00000000E+00  0.00000000E+00  0.00000000E+00
  0.00000000E+00  0.00000000E+00  0.00000000E+00
  0.00000000E+00  0.00000000E+00  0.00000000E+00
  0.00000000E+00  0.00000000E+00  0.00000000E+00
  0.00000000E+00  0.00000000E+00  0.00000000E+00
  0.00000000E+00  0.00000000E+00  0.00000000E+00
  0.00000000E+00  0.00000000E+00  0.00000000E+00
  0.00000000E+00  0.00000000E+00  0.00000000E+00
  0.00000000E+00  0.00000000E+00  0.00000000E+00
  0.00000000E+00  0.00000000E+00  0.00000000E+00
  0.00000000E+00  0.00000000E+00  0.00000000E+00
  0.00000000E+00  0.00000000E+00  0.00000000E+00
  0.00000000E+00  0.00000000E+00  0.00000000E+00
  0.00000000E+00  0.00000000E+00  0.00000000E+00
  0.00000000E+00  0.00000000E+00  0.00000000E+00
  0.00000000E+00  0.00000000E+00  0.00000000E+00
  0.00000000E+00  0.00000000E+00  0.00000000E+00
  0.00000000E+00  0.00000000E+00  0.00000000E+00
  0.00000000E+00  0.00000000E+00  0.00000000E+00
  0.00000000E+00  0.00000000E+00  0.00000000E+00
  0.00000000E+00  0.00000000E+00  0.00000000E+00
  0.00000000E+00  0.00000000E+00  0.00000000E+00
  0.00000000E+00  0.00000000E+00  0.00000000E+00
  0.00000000E+00  0.00000000E+00  0.00000000E+00
  0.00000000E+00  0.00000000E+00  0.00000000E+00
  0.00000000E+00  0.00000000E+00  0.00000000E+00
  0.00000000E+00  0.00000000E+00  0.00000000E+00
  0.00000000E+00  0.00000000E+00  0.00000000E+00
  0.00000000E+00  0.00000000E+00  0.00000000E+00
  0.00000000E+00  0.00000000E+00  0.00000000E+00
  0.00000000E+00  0.00000000E+00  0.00000000E+00
  0.00000000E+00  0.00000000E+00  0.00000000E+00
  0.00000000E+00  0.00000000E+00  0.00000000E+00
  0.00000000E+00  0.00000000E+00  0.00000000E+00
  0.00000000E+00  0.00000000E+00  0.00000000E+00
  0.00000000E+00  0.00000000E+00  0.00000000E+00
  0.00000000E+00  0.00000000E+00  0.00000000E+00
  0.00000000E+00  0.00000000E+00  0.00000000E+00
  0.00000000E+00  0.00000000E+00  0.00000000E+00
  0.00000000E+00  0.00000000E+00  0.00000000E+00
  0.00000000E+00  0.00000000E+00  0.00000000E+00
  0.00000000E+00  0.00000000E+00  0.00000000E+00
  0.00000000E+00  0.00000000E+00  0.00000000E+00
  0.00000000E+00  0.00000000E+00  0.00000000E+00
  0.00000000E+00  0.00000000E+00  0.00000000E+00
  0.00000000E+00  0.00000000E+00  0.00000000E+00
  0.00000000E+00  0.00000000E+00  0.00000000E+00
  0.00000000E+00  0.00000000E+00  0.00000000E+00
  0.00000000E+00  0.00000000E+00  0.00000000E+00
  0.00000000E+00  0.00000000E+00  0.00000000E+00
