hexa_FA0500MA0375Cs0125                 
   1.00000000000000     
    18.7960646971063738    0.0609284910035357    0.0288668928658707
    -9.3528162853049377   14.5247104490370518   -0.0035876958602533
     0.0118697270470328    0.0056821457944703    7.7255208639203721
   Pb   I    N    C    H    Cs
     8    24    11     7    38     1
Direct
  0.5020825642207533  0.4988557306952858  0.9415580113369578
  0.5037659801901674  0.0065823769709523  0.9469656951050384
  0.0051960155440811  0.5038162437906257  0.9419950042386362
  0.0043816063476798  0.0072921503641276  0.9411240292119762
  0.0026262421508719  0.0041816906916186  0.4439317156590355
  0.0035715037068152  0.5015394230136068  0.4375894617396234
  0.5078656608485937  0.0093933373482010  0.4464411886371930
  0.5039806276545213  0.4987513067605742  0.4441200137604435
  0.4368492647662341  0.1053377390381332  0.2069443956612349
  0.4199520343808918  0.5794524244432329  0.1972430236049842
  0.9213821971919680  0.0857591497013342  0.1951337949829937
  0.9443910957202744  0.6073686088203963  0.1924651290012179
  0.4193757292876871  0.3226616121408510  0.1980436135996549
  0.4102030227551354  0.8321021349734866  0.2066426321241940
  0.9029066374821267  0.3244666757587709  0.1851625729535681
  0.9216868053663227  0.8274106868195847  0.1859634168717106
  0.1709953448931643  0.0818098786678278  0.1991589682221019
  0.1661456944112785  0.5768901748343513  0.1911178008814012
  0.6684174424741522  0.0838829279897535  0.1896741914646658
  0.6674007997907233  0.5825557198016640  0.1883279800881870
  0.0700285415579232  0.4044964371058839  0.6907409635414976
  0.0823939398541173  0.9145439806054593  0.6967950876478167
  0.5884945741988415  0.4189086304165524  0.6989650791235171
  0.5808466642028225  0.9189428694604949  0.7002768536487297
  0.1023700519335783  0.1799124682378032  0.6856727779454981
  0.0936140474164947  0.6820597156867294  0.6802853335790305
  0.6083251027835989  0.1879465357085682  0.7115265944806614
  0.5895855604996566  0.6784397450455096  0.6944763889260197
  0.3411066337885338  0.4118516770984033  0.6907297634405509
  0.3410343982072179  0.9291327797064479  0.6865651839037952
  0.8409799334252885  0.4257729106305236  0.6951479527594847
  0.8427456557042811  0.9226757372545411  0.6981762451470960
  0.2242000494638345  0.3231976556949161  0.1872516309338119
  0.7210212919274466  0.8185962426192399  0.1869894127739860
  0.1008403261381324  0.3247053246929793  0.1872879431984306
  0.5967324215640891  0.8178197545569587  0.1876474754294073
  0.2785421707642464  0.6798476555409710  0.6856935921677491
  0.7768074469941537  0.6771383855206089  0.6877244582272798
  0.4011001888745963  0.6776947526352667  0.6870486677383091
  0.8988770554436439  0.6734532004525713  0.6889218145543966
  0.6322014217712357  0.3265695465170916  0.1105633677753902
  0.1282247105828395  0.8422084905426225  0.2277776639868682
  0.2876484954682867  0.1198506839876817  0.6236755256192931
  0.1831686703460219  0.3652251709111813  0.1869761841616816
  0.6792047897415517  0.8597215157408099  0.1870394255508668
  0.3187091348094830  0.6369771777421662  0.6864704106661994
  0.8166301703809274  0.6339600716957869  0.6877128459886890
  0.7060278409528226  0.3737894915687580  0.2300139505417968
  0.2045028592732215  0.8504435475654322  0.1479256633668374
  0.3633032705533194  0.1778833511625714  0.7343971809529901
  0.2206213283595694  0.4404287109631627  0.1865012839387100
  0.7158378220000805  0.9349495790485587  0.1866315915700804
  0.2807053741750509  0.5617795722794142  0.6867662262386435
  0.7780713064449436  0.5587665151726107  0.6867124554537019
  0.1953268622875081  0.2531205912821027  0.1882335738894780
  0.6925434898034359  0.7482161847903283  0.1868222528080605
  0.2887540788945882  0.3608250723426610  0.1877001083201201
  0.7855231213285244  0.8563489271399197  0.1859040542698846
  0.0750619893301080  0.3639173321761557  0.1869039474436816
  0.5688452306152880  0.8549584288033403  0.1882852899779064
  0.0592487301773100  0.2546556271617550  0.1883814301542285
  0.5562097798644550  0.7473965352847305  0.1883621431063371
  0.3084092963673626  0.7501071853184323  0.6842167774969613
  0.8066333811837302  0.7474216930438953  0.6894523357076642
  0.2139874997031599  0.6437320943166508  0.6843961823623619
  0.7121802702432382  0.6404720442799716  0.6880772999443517
  0.4281480390386402  0.6397898330137805  0.6874567103569769
  0.9240536838347396  0.6336841991358432  0.6886842192564012
  0.4421704967060137  0.7479451600643409  0.6870401258390096
  0.9407154801291948  0.7432901043197522  0.6907015332520812
  0.6180876043833230  0.3720960365083241  0.0586225045607151
  0.5776874406437917  0.2742039544035817  0.1718629567936237
  0.6427077449518666  0.2956506834924291  0.0063510908334418
  0.6924813103315884  0.4085418444824755  0.3311526179303046
  0.7161102745627319  0.3224668834575083  0.2869864440956744
  0.7620137442161870  0.4243116361795685  0.1564050451110252
  0.0871620045572729  0.8406046010613616  0.1364072509608713
  0.1437781503254513  0.8972018071933164  0.3078672756196986
  0.0931107008096859  0.7816463148955685  0.2980857848792096
  0.2385107907192432  0.9141605690345377  0.0726966363403110
  0.2450488251419348  0.8517331349357863  0.2508975586418421
  0.1837916942278782  0.7909671097992211  0.0638641651052049
  0.2683203398457552  0.1582237160803615  0.5604347185279904
  0.2353205506315823  0.0691770153121539  0.6929439407033738
  0.3002747084512553  0.0858528953902339  0.5303806263309121
  0.3483876111820022  0.2141504614670943  0.8294810735777962
  0.3793615380594066  0.1329118484316522  0.7992459774450399
  0.4157013675658190  0.2272965250815973  0.6514789928661802
  0.8193361894166916  0.1812527549325755  0.6924421032192039
 
  0.00000000E+00  0.00000000E+00  0.00000000E+00
  0.00000000E+00  0.00000000E+00  0.00000000E+00
  0.00000000E+00  0.00000000E+00  0.00000000E+00
  0.00000000E+00  0.00000000E+00  0.00000000E+00
  0.00000000E+00  0.00000000E+00  0.00000000E+00
  0.00000000E+00  0.00000000E+00  0.00000000E+00
  0.00000000E+00  0.00000000E+00  0.00000000E+00
  0.00000000E+00  0.00000000E+00  0.00000000E+00
  0.00000000E+00  0.00000000E+00  0.00000000E+00
  0.00000000E+00  0.00000000E+00  0.00000000E+00
  0.00000000E+00  0.00000000E+00  0.00000000E+00
  0.00000000E+00  0.00000000E+00  0.00000000E+00
  0.00000000E+00  0.00000000E+00  0.00000000E+00
  0.00000000E+00  0.00000000E+00  0.00000000E+00
  0.00000000E+00  0.00000000E+00  0.00000000E+00
  0.00000000E+00  0.00000000E+00  0.00000000E+00
  0.00000000E+00  0.00000000E+00  0.00000000E+00
  0.00000000E+00  0.00000000E+00  0.00000000E+00
  0.00000000E+00  0.00000000E+00  0.00000000E+00
  0.00000000E+00  0.00000000E+00  0.00000000E+00
  0.00000000E+00  0.00000000E+00  0.00000000E+00
  0.00000000E+00  0.00000000E+00  0.00000000E+00
  0.00000000E+00  0.00000000E+00  0.00000000E+00
  0.00000000E+00  0.00000000E+00  0.00000000E+00
  0.00000000E+00  0.00000000E+00  0.00000000E+00
  0.00000000E+00  0.00000000E+00  0.00000000E+00
  0.00000000E+00  0.00000000E+00  0.00000000E+00
  0.00000000E+00  0.00000000E+00  0.00000000E+00
  0.00000000E+00  0.00000000E+00  0.00000000E+00
  0.00000000E+00  0.00000000E+00  0.00000000E+00
  0.00000000E+00  0.00000000E+00  0.00000000E+00
  0.00000000E+00  0.00000000E+00  0.00000000E+00
  0.00000000E+00  0.00000000E+00  0.00000000E+00
  0.00000000E+00  0.00000000E+00  0.00000000E+00
  0.00000000E+00  0.00000000E+00  0.00000000E+00
  0.00000000E+00  0.00000000E+00  0.00000000E+00
  0.00000000E+00  0.00000000E+00  0.00000000E+00
  0.00000000E+00  0.00000000E+00  0.00000000E+00
  0.00000000E+00  0.00000000E+00  0.00000000E+00
  0.00000000E+00  0.00000000E+00  0.00000000E+00
  0.00000000E+00  0.00000000E+00  0.00000000E+00
  0.00000000E+00  0.00000000E+00  0.00000000E+00
  0.00000000E+00  0.00000000E+00  0.00000000E+00
  0.00000000E+00  0.00000000E+00  0.00000000E+00
  0.00000000E+00  0.00000000E+00  0.00000000E+00
  0.00000000E+00  0.00000000E+00  0.00000000E+00
  0.00000000E+00  0.00000000E+00  0.00000000E+00
  0.00000000E+00  0.00000000E+00  0.00000000E+00
  0.00000000E+00  0.00000000E+00  0.00000000E+00
  0.00000000E+00  0.00000000E+00  0.00000000E+00
  0.00000000E+00  0.00000000E+00  0.00000000E+00
  0.00000000E+00  0.00000000E+00  0.00000000E+00
  0.00000000E+00  0.00000000E+00  0.00000000E+00
  0.00000000E+00  0.00000000E+00  0.00000000E+00
  0.00000000E+00  0.00000000E+00  0.00000000E+00
  0.00000000E+00  0.00000000E+00  0.00000000E+00
  0.00000000E+00  0.00000000E+00  0.00000000E+00
  0.00000000E+00  0.00000000E+00  0.00000000E+00
  0.00000000E+00  0.00000000E+00  0.00000000E+00
  0.00000000E+00  0.00000000E+00  0.00000000E+00
  0.00000000E+00  0.00000000E+00  0.00000000E+00
  0.00000000E+00  0.00000000E+00  0.00000000E+00
  0.00000000E+00  0.00000000E+00  0.00000000E+00
  0.00000000E+00  0.00000000E+00  0.00000000E+00
  0.00000000E+00  0.00000000E+00  0.00000000E+00
  0.00000000E+00  0.00000000E+00  0.00000000E+00
  0.00000000E+00  0.00000000E+00  0.00000000E+00
  0.00000000E+00  0.00000000E+00  0.00000000E+00
  0.00000000E+00  0.00000000E+00  0.00000000E+00
  0.00000000E+00  0.00000000E+00  0.00000000E+00
  0.00000000E+00  0.00000000E+00  0.00000000E+00
  0.00000000E+00  0.00000000E+00  0.00000000E+00
  0.00000000E+00  0.00000000E+00  0.00000000E+00
  0.00000000E+00  0.00000000E+00  0.00000000E+00
  0.00000000E+00  0.00000000E+00  0.00000000E+00
  0.00000000E+00  0.00000000E+00  0.00000000E+00
  0.00000000E+00  0.00000000E+00  0.00000000E+00
  0.00000000E+00  0.00000000E+00  0.00000000E+00
  0.00000000E+00  0.00000000E+00  0.00000000E+00
  0.00000000E+00  0.00000000E+00  0.00000000E+00
  0.00000000E+00  0.00000000E+00  0.00000000E+00
  0.00000000E+00  0.00000000E+00  0.00000000E+00
  0.00000000E+00  0.00000000E+00  0.00000000E+00
  0.00000000E+00  0.00000000E+00  0.00000000E+00
  0.00000000E+00  0.00000000E+00  0.00000000E+00
  0.00000000E+00  0.00000000E+00  0.00000000E+00
  0.00000000E+00  0.00000000E+00  0.00000000E+00
  0.00000000E+00  0.00000000E+00  0.00000000E+00
  0.00000000E+00  0.00000000E+00  0.00000000E+00
