cubic_FA0625MA0000Cs0375                
   1.00000000000000     
    12.6886597395420235   -0.1603761421703482    0.1643730935742858
    -0.1586341950980523   12.7096306895823652   -0.2691987622636510
     0.1627098524783171   -0.2688303112283112   12.7577164071765772
   Cs   I    Pb   C    N    H 
     3    24     8     5    10    25
Direct
  0.2565801381687997  0.7383735376621386  0.2515064747346741
  0.2630267608546391  0.7346738863669946  0.7427414285347388
  0.7544564517790520  0.2538130985029539  0.7360834474511491
  0.0252662362192270  0.9840193656393944  0.2415562481477205
  0.9848805703774101  0.0078986804437974  0.7428584635126257
  0.0274356087410699  0.4980670042570552  0.2455707734293898
  0.0098532875187408  0.4811719337625854  0.7446505228233541
  0.4727157270322508  0.0013916426197233  0.2477132782710942
  0.5189008292144351  0.9694316323913197  0.7454618387962468
  0.5158188758587234  0.4857848938619965  0.2481257785938835
  0.4978759549917361  0.5113490767743896  0.7497543181052206
  0.9609445991057219  0.2430672172958785  0.0045931027802633
  0.9816582738056874  0.2401902096290696  0.4853990825589279
  0.0467875250490552  0.7432911544995515  0.9971211398276624
  0.0155143426029702  0.7397441518917178  0.5127664675582571
  0.5455946177715201  0.2475570663941342  0.9819523579161936
  0.5129919303885022  0.2465625184129560  0.5204431735180913
  0.4628109814210031  0.7470643766223071  0.0063466780473122
  0.4874745424445853  0.7448166800570585  0.4678239367354463
  0.2569399948852979  0.4831900446728388  0.4959293389390800
  0.2590863283221200  0.4733970726629378  0.9936742439606693
  0.2475234778244922  0.9796817004090782  0.5224571075420136
  0.2570218119738171  0.0089083435652546  0.9777529509020438
  0.7581799137936110  0.5135770214777510  0.5086505938438434
  0.7613682555615146  0.5256084493976063  0.0102275711295287
  0.7469421295918237  0.9918491015583976  0.4790375310820064
  0.7547199687400481  0.9535488203771598  0.9981090243421225
  0.5084797995822544  0.9974584540641640  0.9954399017230806
  0.4960458411271225  0.9961574570845168  0.4998237463330861
  0.5116975132839168  0.5010502062258798  0.9992275454541663
  0.5088184671842582  0.4963551969456721  0.5007806360942223
  0.0027952850370508  0.9966474712714730  0.9889820441249770
  0.9981342155871409  0.9887288083967376  0.4910122280731110
  0.0102212345882000  0.4930259897688133  0.9927291718030852
  0.0061798401048566  0.4888595321685193  0.4940776897292448
  0.7499132210274196  0.7357557735162079  0.2668582928461576
  0.2578192809101322  0.2736417923273620  0.7440975619676420
  0.2530692743797075  0.2744243346675000  0.2538662843136176
  0.7248692522169072  0.2489074941278150  0.2567439313101586
  0.7390817661928103  0.7540058364738588  0.7532722371280700
  0.8497849527211757  0.7215357842299263  0.2415319916961364
  0.6883476383955008  0.8000425527325641  0.2208685496524527
  0.3151159600770139  0.2249189485518478  0.8102810721721727
  0.1894039760450681  0.2265387307444941  0.6812558029992292
  0.2890625242074225  0.2124296712421750  0.3239754107931311
  0.2313201894223531  0.2455087201112381  0.1566355050019259
  0.7777245775657596  0.1616046442049769  0.2607958908344787
  0.7649110737946067  0.3403631531562976  0.2299284815694212
  0.8002689600594599  0.6831335361287993  0.7898580505849000
  0.7377483409034186  0.7797392440188093  0.6549017619948766
  0.7155725022236596  0.6906120945811056  0.3310044275061285
  0.8913875818189035  0.6659924919952208  0.2774439793723132
  0.8882855980724106  0.7592311230585226  0.1818998934520895
  0.7135978816421494  0.8442997439605259  0.1585423520932902
  0.6124773214399403  0.8089251392346265  0.2474317457597165
  0.2679699607230159  0.3590813475189598  0.7412322248423963
  0.3671584493090321  0.2660609065857046  0.8572956008476385
  0.3060243527891792  0.1460913475971296  0.8230734692491092
  0.1763766413682011  0.1466227161081970  0.6782631811921278
  0.1456680135508762  0.2687180254552722  0.6325224420599102
  0.2391734587947447  0.3561955845580821  0.2792848083693249
  0.3080305467661595  0.2435573078129255  0.3962502659267874
  0.3115605190775159  0.1368698713652965  0.3055047551890833
  0.2419160420083337  0.1708544651174487  0.1246975061718409
  0.2089393386412769  0.3017359324919739  0.1070362424082824
  0.6407834076013976  0.2453567843874236  0.2775317161527278
  0.7423570943629715  0.0969399498520428  0.2928312237733374
  0.8569549245508293  0.1577194772276840  0.2450836901115572
  0.8427728745840493  0.3520154705187227  0.2097940884716844
  0.7153090364910888  0.4023325416683955  0.2258276951775594
  0.6858598554212075  0.7954249595235278  0.8086528002323276
  0.7920949470127708  0.6626444220188485  0.8666018548912963
  0.8514963674028193  0.6396355778319132  0.7434471752459543
  0.7856384967904120  0.7451647137283292  0.5982642758011233
  0.6907931491538581  0.8388642669833831  0.6336456603131646
 
  0.00000000E+00  0.00000000E+00  0.00000000E+00
  0.00000000E+00  0.00000000E+00  0.00000000E+00
  0.00000000E+00  0.00000000E+00  0.00000000E+00
  0.00000000E+00  0.00000000E+00  0.00000000E+00
  0.00000000E+00  0.00000000E+00  0.00000000E+00
  0.00000000E+00  0.00000000E+00  0.00000000E+00
  0.00000000E+00  0.00000000E+00  0.00000000E+00
  0.00000000E+00  0.00000000E+00  0.00000000E+00
  0.00000000E+00  0.00000000E+00  0.00000000E+00
  0.00000000E+00  0.00000000E+00  0.00000000E+00
  0.00000000E+00  0.00000000E+00  0.00000000E+00
  0.00000000E+00  0.00000000E+00  0.00000000E+00
  0.00000000E+00  0.00000000E+00  0.00000000E+00
  0.00000000E+00  0.00000000E+00  0.00000000E+00
  0.00000000E+00  0.00000000E+00  0.00000000E+00
  0.00000000E+00  0.00000000E+00  0.00000000E+00
  0.00000000E+00  0.00000000E+00  0.00000000E+00
  0.00000000E+00  0.00000000E+00  0.00000000E+00
  0.00000000E+00  0.00000000E+00  0.00000000E+00
  0.00000000E+00  0.00000000E+00  0.00000000E+00
  0.00000000E+00  0.00000000E+00  0.00000000E+00
  0.00000000E+00  0.00000000E+00  0.00000000E+00
  0.00000000E+00  0.00000000E+00  0.00000000E+00
  0.00000000E+00  0.00000000E+00  0.00000000E+00
  0.00000000E+00  0.00000000E+00  0.00000000E+00
  0.00000000E+00  0.00000000E+00  0.00000000E+00
  0.00000000E+00  0.00000000E+00  0.00000000E+00
  0.00000000E+00  0.00000000E+00  0.00000000E+00
  0.00000000E+00  0.00000000E+00  0.00000000E+00
  0.00000000E+00  0.00000000E+00  0.00000000E+00
  0.00000000E+00  0.00000000E+00  0.00000000E+00
  0.00000000E+00  0.00000000E+00  0.00000000E+00
  0.00000000E+00  0.00000000E+00  0.00000000E+00
  0.00000000E+00  0.00000000E+00  0.00000000E+00
  0.00000000E+00  0.00000000E+00  0.00000000E+00
  0.00000000E+00  0.00000000E+00  0.00000000E+00
  0.00000000E+00  0.00000000E+00  0.00000000E+00
  0.00000000E+00  0.00000000E+00  0.00000000E+00
  0.00000000E+00  0.00000000E+00  0.00000000E+00
  0.00000000E+00  0.00000000E+00  0.00000000E+00
  0.00000000E+00  0.00000000E+00  0.00000000E+00
  0.00000000E+00  0.00000000E+00  0.00000000E+00
  0.00000000E+00  0.00000000E+00  0.00000000E+00
  0.00000000E+00  0.00000000E+00  0.00000000E+00
  0.00000000E+00  0.00000000E+00  0.00000000E+00
  0.00000000E+00  0.00000000E+00  0.00000000E+00
  0.00000000E+00  0.00000000E+00  0.00000000E+00
  0.00000000E+00  0.00000000E+00  0.00000000E+00
  0.00000000E+00  0.00000000E+00  0.00000000E+00
  0.00000000E+00  0.00000000E+00  0.00000000E+00
  0.00000000E+00  0.00000000E+00  0.00000000E+00
  0.00000000E+00  0.00000000E+00  0.00000000E+00
  0.00000000E+00  0.00000000E+00  0.00000000E+00
  0.00000000E+00  0.00000000E+00  0.00000000E+00
  0.00000000E+00  0.00000000E+00  0.00000000E+00
  0.00000000E+00  0.00000000E+00  0.00000000E+00
  0.00000000E+00  0.00000000E+00  0.00000000E+00
  0.00000000E+00  0.00000000E+00  0.00000000E+00
  0.00000000E+00  0.00000000E+00  0.00000000E+00
  0.00000000E+00  0.00000000E+00  0.00000000E+00
  0.00000000E+00  0.00000000E+00  0.00000000E+00
  0.00000000E+00  0.00000000E+00  0.00000000E+00
  0.00000000E+00  0.00000000E+00  0.00000000E+00
  0.00000000E+00  0.00000000E+00  0.00000000E+00
  0.00000000E+00  0.00000000E+00  0.00000000E+00
  0.00000000E+00  0.00000000E+00  0.00000000E+00
  0.00000000E+00  0.00000000E+00  0.00000000E+00
  0.00000000E+00  0.00000000E+00  0.00000000E+00
  0.00000000E+00  0.00000000E+00  0.00000000E+00
  0.00000000E+00  0.00000000E+00  0.00000000E+00
  0.00000000E+00  0.00000000E+00  0.00000000E+00
  0.00000000E+00  0.00000000E+00  0.00000000E+00
  0.00000000E+00  0.00000000E+00  0.00000000E+00
  0.00000000E+00  0.00000000E+00  0.00000000E+00
  0.00000000E+00  0.00000000E+00  0.00000000E+00
