hexa_FA0250MA0000Cs0750                 
   1.00000000000000     
    17.8253382195138173   -0.0167815149139883   -0.0000000365888818
    -8.9261985572536471   14.9106880129787136    0.0000004128970106
     0.0000000252854570    0.0000003502239821    7.8363939767344171
   Pb   I    N    C    H    Cs
     8    24     4     2    10     6
Direct
  0.5013552575245491  0.4955235039905362  0.9388669537053831
  0.4985558224425204  0.0043927481091285  0.9393940049781028
 -0.0046708461574273  0.4974503994030391  0.9400075121949321
  0.0046818216572011  0.0025057179103924  0.9383155517994760
  0.0046706063116969  0.0025497313741178  0.4400076804715200
 -0.0046819520897034  0.4974943640292601  0.4383158389393646
  0.4986440752827040  0.0044760157457187  0.4388667455654290
  0.5014434796726932  0.4956069296600745  0.4393937002862084
  0.4179943941142275  0.0921337638815470  0.1892710571885179
  0.4155987959292337  0.5800221326244458  0.1891139940169198
  0.9200726999954526  0.0879042115046650  0.1894434283895213
  0.9124428194724493  0.5826690803321812  0.1894859558371050
  0.4133636879122399  0.3247423347557542  0.1895925929083076
  0.3974127330880221  0.8319266978469639  0.1895932765938259
  0.9119229845902161  0.3255066957480364  0.1897059230946346
  0.9327625632822372  0.8289102641422643  0.1897595253006734
  0.1746082805806203  0.0902678282025171  0.1893414155934544
  0.1635651618839046  0.5858124817142928  0.1891795882295935
  0.6676810966756045  0.0894163070092943  0.1893380663967424
  0.6719539742637129  0.5796323986909006  0.1893896351501250
  0.0799270659013556  0.4120957547342535  0.6894439613733000
  0.0875570451754780  0.9173308469106644  0.6894855813084769
  0.5820049799275052  0.4078657370534797  0.6892703973870817
  0.5843999041470311  0.9199767278343356  0.6891146139012130
  0.0880774257159494  0.1744933196827660  0.6897059791080089
  0.0672373348002519  0.6710898226409229  0.6897593517302305
  0.5866376088071416  0.1752574118486116  0.6895921595279144
  0.6025867630406589  0.6680730174071622  0.6895935900996030
  0.3323187370301141  0.4105833291825224  0.6893382367361203
  0.3280458784950667  0.9203678843146498  0.6893895666506791
  0.8253914292088513  0.4097332860688792  0.6893409661485648
  0.8364345800756727  0.9141869349726589  0.6891798604940410
  0.7249879370605966  0.8197268260721012  0.1866245636484102
  0.5943749361495884  0.8194884475654143  0.1866200938205741
  0.2750113277313957  0.6802733710491509  0.6866247171982997
  0.4056237623857430  0.6805106439576811  0.6866197582118753
  0.6800226221242707  0.8602724475388039  0.1865079907204430
  0.3199780715684064  0.6397270989496943  0.6865078904713995
  0.7167862693522072  0.9336102636366631  0.1863391379370955
  0.2832131599494935  0.5663893075019568  0.6863389963478996
  0.6968515807463592  0.7512762412415085  0.1868272770288102
  0.7917373447649839  0.8561034566636654  0.1866606579876340
  0.5636596214422490  0.8555279514429178  0.1866709143379179
  0.5539336007248303  0.7507817537261925  0.1868527306900672
  0.3031483517079351  0.7487234534196735  0.6868274926067809
  0.2082625550346154  0.6438965617728626  0.6866609956298634
  0.4363399549103781  0.6444712278982706  0.6866705198315685
  0.4460662001600544  0.7492178074361636  0.6868525490614391
  0.6729352634471347  0.3398473491243141  0.1853324780815676
  0.1697878291773280  0.3456633117587151  0.1853265345793431
  0.8302056209545039  0.1543347747506471  0.6853289846433142
  0.3270635619960595  0.1601525972806831  0.6853280615063089
  0.8295237861775113  0.6567415467510344  0.6854561142681961
  0.1704725353889019  0.8432568256711757  0.1854566147576765
 
  0.00000000E+00  0.00000000E+00  0.00000000E+00
  0.00000000E+00  0.00000000E+00  0.00000000E+00
  0.00000000E+00  0.00000000E+00  0.00000000E+00
  0.00000000E+00  0.00000000E+00  0.00000000E+00
  0.00000000E+00  0.00000000E+00  0.00000000E+00
  0.00000000E+00  0.00000000E+00  0.00000000E+00
  0.00000000E+00  0.00000000E+00  0.00000000E+00
  0.00000000E+00  0.00000000E+00  0.00000000E+00
  0.00000000E+00  0.00000000E+00  0.00000000E+00
  0.00000000E+00  0.00000000E+00  0.00000000E+00
  0.00000000E+00  0.00000000E+00  0.00000000E+00
  0.00000000E+00  0.00000000E+00  0.00000000E+00
  0.00000000E+00  0.00000000E+00  0.00000000E+00
  0.00000000E+00  0.00000000E+00  0.00000000E+00
  0.00000000E+00  0.00000000E+00  0.00000000E+00
  0.00000000E+00  0.00000000E+00  0.00000000E+00
  0.00000000E+00  0.00000000E+00  0.00000000E+00
  0.00000000E+00  0.00000000E+00  0.00000000E+00
  0.00000000E+00  0.00000000E+00  0.00000000E+00
  0.00000000E+00  0.00000000E+00  0.00000000E+00
  0.00000000E+00  0.00000000E+00  0.00000000E+00
  0.00000000E+00  0.00000000E+00  0.00000000E+00
  0.00000000E+00  0.00000000E+00  0.00000000E+00
  0.00000000E+00  0.00000000E+00  0.00000000E+00
  0.00000000E+00  0.00000000E+00  0.00000000E+00
  0.00000000E+00  0.00000000E+00  0.00000000E+00
  0.00000000E+00  0.00000000E+00  0.00000000E+00
  0.00000000E+00  0.00000000E+00  0.00000000E+00
  0.00000000E+00  0.00000000E+00  0.00000000E+00
  0.00000000E+00  0.00000000E+00  0.00000000E+00
  0.00000000E+00  0.00000000E+00  0.00000000E+00
  0.00000000E+00  0.00000000E+00  0.00000000E+00
  0.00000000E+00  0.00000000E+00  0.00000000E+00
  0.00000000E+00  0.00000000E+00  0.00000000E+00
  0.00000000E+00  0.00000000E+00  0.00000000E+00
  0.00000000E+00  0.00000000E+00  0.00000000E+00
  0.00000000E+00  0.00000000E+00  0.00000000E+00
  0.00000000E+00  0.00000000E+00  0.00000000E+00
  0.00000000E+00  0.00000000E+00  0.00000000E+00
  0.00000000E+00  0.00000000E+00  0.00000000E+00
  0.00000000E+00  0.00000000E+00  0.00000000E+00
  0.00000000E+00  0.00000000E+00  0.00000000E+00
  0.00000000E+00  0.00000000E+00  0.00000000E+00
  0.00000000E+00  0.00000000E+00  0.00000000E+00
  0.00000000E+00  0.00000000E+00  0.00000000E+00
  0.00000000E+00  0.00000000E+00  0.00000000E+00
  0.00000000E+00  0.00000000E+00  0.00000000E+00
  0.00000000E+00  0.00000000E+00  0.00000000E+00
  0.00000000E+00  0.00000000E+00  0.00000000E+00
  0.00000000E+00  0.00000000E+00  0.00000000E+00
  0.00000000E+00  0.00000000E+00  0.00000000E+00
  0.00000000E+00  0.00000000E+00  0.00000000E+00
  0.00000000E+00  0.00000000E+00  0.00000000E+00
  0.00000000E+00  0.00000000E+00  0.00000000E+00
