ortho_FA0625MA0000Cs0375                
   1.00000000000000     
    11.4014479756078142   -0.1418722963677120   -0.0148228150239575
    -0.1348271683406148    9.3919442178002122   -0.0921342023990045
    -0.0272471335701323   -0.1536803054656702   19.1540927705217854
   Pb   I    Cs   C    N    H 
     8    24     3     5    10    25
Direct
  0.1568911412349110  0.1274312543767934  0.4269903800947460
  0.1607518420005808  0.6277962817686220  0.4177731502419326
  0.8481018387530155  0.3593684781127404  0.5366468343996570
  0.8467308889889196  0.8752009184611508  0.5387474957548442
  0.3425808269613491  0.3565787617249909  0.9505000522786093
  0.3472918446598221  0.8482696540934128  0.9539609190516147
  0.6716730183379670  0.1012468585059854  0.0649713606914858
  0.6707380360061856  0.5978178701996609  0.0582928767807774
  0.1737382260058847  0.0985120844533390  0.0076082685398499
  0.1847220335868871  0.6000838900623967  0.0217829715652090
  0.8428500524180881  0.3496500992788258  0.0084349318109615
  0.8451486171405486  0.8512299850874182  0.0057091705326306
  0.3367398936177330  0.3884165428867635  0.4785652374606117
  0.3265194088712302  0.8823052909604465  0.4789459874026359
  0.6701298501418098  0.1115082409309560  0.4802317297403921
  0.6732477133954345  0.6079481867960448  0.4877415927866520
  0.2629090179067721  0.1374560894826512  0.2777312935734093
  0.2787387517443639  0.6215409987381335  0.2740338000393299
  0.7252280134195468  0.3505169450169796  0.6788984462443928
  0.7457947027604764  0.8750792466879938  0.6912035033354801
  0.2198095036000541  0.3719141286064182  0.8058204039162320
  0.2340909244214062  0.8509579409273902  0.8069410519966421
  0.7901859125571596  0.1035352543094820  0.2107357021493046
  0.8047245247136305  0.6003790466670611  0.2016728113792087
  0.0366678747764482  0.1258146451605498  0.5894915106324226
  0.0249126243562202  0.6280028832364921  0.5804103219943705
  0.9708680385546111  0.3670274487309090  0.3758743307050939
  0.9749077822996460  0.8707878606755944  0.3794502848768126
  0.4860362448056973  0.3447131849770139  0.1093168250682298
  0.4872398580244283  0.8451588723000500  0.1084916668718961
  0.5278387517318462  0.1075528736971758  0.9081731981792072
  0.5324989016905001  0.6051196904578250  0.9025608333236896
  0.5693810656308669  0.3720256185098939  0.3107840146983509
  0.0623783125950098  0.3583298541186061  0.1688852064211173
  0.0684582749608677  0.8635954431407301  0.1699182115279463
  0.5669365847751071  0.8653860881651303  0.3375691026294276
  0.4088358984846766  0.6510967008485187  0.6746614808656021
  0.4096293222371667  0.1315464523947960  0.6772691633620782
  0.9102421920959960  0.1066924366932624  0.8495100987318537
  0.9185785881795603  0.6441878389138307  0.8296389507447509
  0.6689008860594393  0.8046625916121962  0.3316092365127223
  0.5205747043462156  0.9446866549918114  0.2895412837160069
  0.5146137892843948  0.6211239853167618  0.6533494927645409
  0.3111193417193495  0.6023122805463442  0.6451780254177051
  0.4772879095478770  0.0654790664859363  0.7210258729095318
  0.4349215263368063  0.1537933158575695  0.6114568556856477
  0.0029854848000016  0.0896097785452828  0.8100731686393554
  0.8116176747431922  0.1606753772127822  0.8282201597116285
  0.9800536468063041  0.5884515476071743  0.8797465863533251
  0.9264862016572648  0.6091092611511821  0.7631986356920065
  0.5168637353382621  0.8490899877989253  0.3856866283187805
  0.6996333849692441  0.7476322874213309  0.3726421487163451
  0.7201785909307122  0.8121792046721793  0.2877947868948398
  0.5607526249541660  0.9596305681425005  0.2423963463295706
  0.4362873017165360  0.9803490695890236  0.2947518605580305
  0.3995642702339629  0.7212899662743785  0.7205510233170519
  0.5867542713948964  0.6706275520450985  0.6762281560674261
  0.5306506613043267  0.5596307905551905  0.6099974643758280
  0.3099998102590836  0.5400475350144800  0.6005303996812278
  0.2322546256072145  0.6326503690373984  0.6645457017659110
  0.3268880988121064  0.1717221380731384  0.6977509380322604
  0.4516971707624732  0.0543237566708796  0.7718641800220520
  0.5578747993197374  0.0266996248607982  0.7071615168173809
  0.5119481639285982  0.1237603845016520  0.5882741375214900
  0.3787776216053807  0.2075367885190906  0.5801999437991326
  0.9155526679947151  0.0727758414117413  0.9038032114815870
  0.0776950331282168  0.0458186747906152  0.8294449591419610
  0.0054635582876416  0.1185223386418490  0.7589241942988729
  0.7988004578979896  0.1960270846031561  0.7781319819556630
  0.7419867101702270  0.1669942618942130  0.8617263318394656
  0.8556473102594867  0.7253694965724533  0.8442666454568215
  0.9712385441569491  0.6250717682702143  0.9299090731848796
  0.0452589656067725  0.5173143813074256  0.8694663263523947
  0.9820036596913906  0.5335448127020741  0.7451990235036822
  0.8744767750525690  0.6584464011260189  0.7277247882473985
 
  0.00000000E+00  0.00000000E+00  0.00000000E+00
  0.00000000E+00  0.00000000E+00  0.00000000E+00
  0.00000000E+00  0.00000000E+00  0.00000000E+00
  0.00000000E+00  0.00000000E+00  0.00000000E+00
  0.00000000E+00  0.00000000E+00  0.00000000E+00
  0.00000000E+00  0.00000000E+00  0.00000000E+00
  0.00000000E+00  0.00000000E+00  0.00000000E+00
  0.00000000E+00  0.00000000E+00  0.00000000E+00
  0.00000000E+00  0.00000000E+00  0.00000000E+00
  0.00000000E+00  0.00000000E+00  0.00000000E+00
  0.00000000E+00  0.00000000E+00  0.00000000E+00
  0.00000000E+00  0.00000000E+00  0.00000000E+00
  0.00000000E+00  0.00000000E+00  0.00000000E+00
  0.00000000E+00  0.00000000E+00  0.00000000E+00
  0.00000000E+00  0.00000000E+00  0.00000000E+00
  0.00000000E+00  0.00000000E+00  0.00000000E+00
  0.00000000E+00  0.00000000E+00  0.00000000E+00
  0.00000000E+00  0.00000000E+00  0.00000000E+00
  0.00000000E+00  0.00000000E+00  0.00000000E+00
  0.00000000E+00  0.00000000E+00  0.00000000E+00
  0.00000000E+00  0.00000000E+00  0.00000000E+00
  0.00000000E+00  0.00000000E+00  0.00000000E+00
  0.00000000E+00  0.00000000E+00  0.00000000E+00
  0.00000000E+00  0.00000000E+00  0.00000000E+00
  0.00000000E+00  0.00000000E+00  0.00000000E+00
  0.00000000E+00  0.00000000E+00  0.00000000E+00
  0.00000000E+00  0.00000000E+00  0.00000000E+00
  0.00000000E+00  0.00000000E+00  0.00000000E+00
  0.00000000E+00  0.00000000E+00  0.00000000E+00
  0.00000000E+00  0.00000000E+00  0.00000000E+00
  0.00000000E+00  0.00000000E+00  0.00000000E+00
  0.00000000E+00  0.00000000E+00  0.00000000E+00
  0.00000000E+00  0.00000000E+00  0.00000000E+00
  0.00000000E+00  0.00000000E+00  0.00000000E+00
  0.00000000E+00  0.00000000E+00  0.00000000E+00
  0.00000000E+00  0.00000000E+00  0.00000000E+00
  0.00000000E+00  0.00000000E+00  0.00000000E+00
  0.00000000E+00  0.00000000E+00  0.00000000E+00
  0.00000000E+00  0.00000000E+00  0.00000000E+00
  0.00000000E+00  0.00000000E+00  0.00000000E+00
  0.00000000E+00  0.00000000E+00  0.00000000E+00
  0.00000000E+00  0.00000000E+00  0.00000000E+00
  0.00000000E+00  0.00000000E+00  0.00000000E+00
  0.00000000E+00  0.00000000E+00  0.00000000E+00
  0.00000000E+00  0.00000000E+00  0.00000000E+00
  0.00000000E+00  0.00000000E+00  0.00000000E+00
  0.00000000E+00  0.00000000E+00  0.00000000E+00
  0.00000000E+00  0.00000000E+00  0.00000000E+00
  0.00000000E+00  0.00000000E+00  0.00000000E+00
  0.00000000E+00  0.00000000E+00  0.00000000E+00
  0.00000000E+00  0.00000000E+00  0.00000000E+00
  0.00000000E+00  0.00000000E+00  0.00000000E+00
  0.00000000E+00  0.00000000E+00  0.00000000E+00
  0.00000000E+00  0.00000000E+00  0.00000000E+00
  0.00000000E+00  0.00000000E+00  0.00000000E+00
  0.00000000E+00  0.00000000E+00  0.00000000E+00
  0.00000000E+00  0.00000000E+00  0.00000000E+00
  0.00000000E+00  0.00000000E+00  0.00000000E+00
  0.00000000E+00  0.00000000E+00  0.00000000E+00
  0.00000000E+00  0.00000000E+00  0.00000000E+00
  0.00000000E+00  0.00000000E+00  0.00000000E+00
  0.00000000E+00  0.00000000E+00  0.00000000E+00
  0.00000000E+00  0.00000000E+00  0.00000000E+00
  0.00000000E+00  0.00000000E+00  0.00000000E+00
  0.00000000E+00  0.00000000E+00  0.00000000E+00
  0.00000000E+00  0.00000000E+00  0.00000000E+00
  0.00000000E+00  0.00000000E+00  0.00000000E+00
  0.00000000E+00  0.00000000E+00  0.00000000E+00
  0.00000000E+00  0.00000000E+00  0.00000000E+00
  0.00000000E+00  0.00000000E+00  0.00000000E+00
  0.00000000E+00  0.00000000E+00  0.00000000E+00
  0.00000000E+00  0.00000000E+00  0.00000000E+00
  0.00000000E+00  0.00000000E+00  0.00000000E+00
  0.00000000E+00  0.00000000E+00  0.00000000E+00
  0.00000000E+00  0.00000000E+00  0.00000000E+00
