hexa_FA0000MA0000Cs1000                 
   1.00000000000000     
    17.3427616106628690    0.0009584768101267   -0.0000002931089829
    -8.6706502734256556   15.1755633433017216    0.0000032851506629
    -0.0000000689009034    0.0000017925224810    7.8771329195642021
   Pb   I    N    C    H    Cs
     8    24     0     0     0     8
Direct
  0.4999769457199052  0.4999496099831346  0.9392369409156964
  0.4999773672622609  0.9999528258096925  0.9392374519833433
  0.9999744161738547  0.4999496292044064  0.9392367709286122
  0.9999766453357856  0.9999509088286812  0.9392382956528713
  0.0000231791970191  0.0000494765839119  0.4392370116702926
  0.0000208290646690  0.5000474843736690  0.4392378353566717
  0.5000234584960828  0.0000508837908535  0.4392372907941052
  0.5000226344470883  0.5000473405066573  0.4392375991012070
  0.4143496945476031  0.0857508426543896  0.1895061509850173
  0.4143468987057962  0.5857456364768822  0.1895064680753585
  0.9143497080269629  0.0857504546176997  0.1895065744653912
  0.9143471851294860  0.5857477626122667  0.1895079208231275
  0.4153386525648947  0.3306935094746746  0.1896619265226254
  0.4153369817779384  0.8306962650790143  0.1896630984383601
  0.9153332469564179  0.3306937463198014  0.1896622361811060
  0.9153360964795942  0.8306941872643605  0.1896642268847041
  0.1713898021570277  0.0857721885963270  0.1895121915918967
  0.1713874133229934  0.5857684159067112  0.1895125319088027
  0.6713900579347447  0.0857731976381628  0.1895127800672075
  0.6713893001331940  0.5857698858549177  0.1895141104603400
  0.0856448359560522  0.4142447655009110  0.6895080397348283
  0.0856514996699488  0.9142516816346241  0.6895066896815166
  0.5856537234842167  0.4142532186992287  0.6895064750246132
  0.5856515435017611  0.9142525201395683  0.6895062747038385
  0.0846638055047254  0.1693052048021461  0.6896639653502512
  0.0846659031630297  0.6693045896870518  0.6896620504277815
  0.5846649029306751  0.1693068214848070  0.6896626077556636
  0.5846613870331900  0.6693043629754402  0.6896616724550432
  0.3286098079028846  0.4142232760982942  0.6895141357595692
  0.3286109827125975  0.9142318892459184  0.6895127227720047
  0.8286092532516948  0.4142323683997094  0.6895123062757904
  0.8286102756983614  0.9142298416831388  0.6895120415715102
  0.6729203994240653  0.3454639269913996  0.1856046346252698
  0.1729219851840899  0.8454678439534601  0.1856059679749251
  0.8270763181697283  0.1545353760638753  0.6856056839522047
  0.3270755754970703  0.1545379535958805  0.6856052201866015
  0.1729200088308797  0.3454641805621135  0.1855958855108686
  0.3270711432711385  0.6545285910388070  0.6856039468128906
  0.6729247207807012  0.8454698670931984  0.1856112410785522
  0.8270730660269375  0.6545326547045510  0.6855980491123644
 
  0.00000000E+00  0.00000000E+00  0.00000000E+00
  0.00000000E+00  0.00000000E+00  0.00000000E+00
  0.00000000E+00  0.00000000E+00  0.00000000E+00
  0.00000000E+00  0.00000000E+00  0.00000000E+00
  0.00000000E+00  0.00000000E+00  0.00000000E+00
  0.00000000E+00  0.00000000E+00  0.00000000E+00
  0.00000000E+00  0.00000000E+00  0.00000000E+00
  0.00000000E+00  0.00000000E+00  0.00000000E+00
  0.00000000E+00  0.00000000E+00  0.00000000E+00
  0.00000000E+00  0.00000000E+00  0.00000000E+00
  0.00000000E+00  0.00000000E+00  0.00000000E+00
  0.00000000E+00  0.00000000E+00  0.00000000E+00
  0.00000000E+00  0.00000000E+00  0.00000000E+00
  0.00000000E+00  0.00000000E+00  0.00000000E+00
  0.00000000E+00  0.00000000E+00  0.00000000E+00
  0.00000000E+00  0.00000000E+00  0.00000000E+00
  0.00000000E+00  0.00000000E+00  0.00000000E+00
  0.00000000E+00  0.00000000E+00  0.00000000E+00
  0.00000000E+00  0.00000000E+00  0.00000000E+00
  0.00000000E+00  0.00000000E+00  0.00000000E+00
  0.00000000E+00  0.00000000E+00  0.00000000E+00
  0.00000000E+00  0.00000000E+00  0.00000000E+00
  0.00000000E+00  0.00000000E+00  0.00000000E+00
  0.00000000E+00  0.00000000E+00  0.00000000E+00
  0.00000000E+00  0.00000000E+00  0.00000000E+00
  0.00000000E+00  0.00000000E+00  0.00000000E+00
  0.00000000E+00  0.00000000E+00  0.00000000E+00
  0.00000000E+00  0.00000000E+00  0.00000000E+00
  0.00000000E+00  0.00000000E+00  0.00000000E+00
  0.00000000E+00  0.00000000E+00  0.00000000E+00
  0.00000000E+00  0.00000000E+00  0.00000000E+00
  0.00000000E+00  0.00000000E+00  0.00000000E+00
  0.00000000E+00  0.00000000E+00  0.00000000E+00
  0.00000000E+00  0.00000000E+00  0.00000000E+00
  0.00000000E+00  0.00000000E+00  0.00000000E+00
  0.00000000E+00  0.00000000E+00  0.00000000E+00
  0.00000000E+00  0.00000000E+00  0.00000000E+00
  0.00000000E+00  0.00000000E+00  0.00000000E+00
  0.00000000E+00  0.00000000E+00  0.00000000E+00
  0.00000000E+00  0.00000000E+00  0.00000000E+00
