cubic_FA0375MA0125Cs0500                
   1.00000000000000     
    12.7068018180316695   -0.1230365318579371   -0.0094115480858902
    -0.1227730620564176   12.7073606770408389   -0.2469277380979786
    -0.0095155815535781   -0.2458604341570341   12.7114217463201875
   Cs   I    Pb   C    N    H 
     4    24     8     4     7    21
Direct
  0.2430587350366805  0.2469519387218002  0.2436840035295588
  0.7684436996391234  0.2406308371231075  0.2468259584784876
  0.7723257712933713  0.7494619144014933  0.2355270534871326
  0.7751377344959641  0.7425651693361394  0.7439292626652932
  0.0226212741989796  0.9928265539470978  0.2421205959691408
  0.9868853487825557  0.9991444971671164  0.7434353115478748
  0.9631091346442999  0.5047143898534378  0.2484674979000100
  0.0123549291718784  0.5051178418926764  0.7484264771464300
  0.4944121422906337  0.0568264550271467  0.2450052702895936
  0.5399779170661509  0.9619816332151643  0.7422520164722676
  0.5290251044344750  0.4483267315438758  0.2488198592744664
  0.4867198372462839  0.5329729454362448  0.7507940835513826
  0.9916889034841151  0.2491056770870796  0.0182087524764037
  0.0238169725113174  0.2533094785819339  0.4705037156803068
  0.0254821060522348  0.7498829501687788  0.9874761870318319
  0.9697867795930747  0.7529378547628635  0.4890382405724186
  0.5473346568132484  0.2459659376292258  0.9697509133493722
  0.4864571269202978  0.2475752411050096  0.5389974999181347
  0.4952872068553036  0.7477881155735715  0.0549322463268201
  0.5472786717288958  0.7450663185749048  0.4598313445974873
  0.2578642162571323  0.5058968963749426  0.4866140201312502
  0.2561336446774909  0.4753318556532733  0.0300129924729961
  0.2552554450977103  0.9854764498086582  0.4910865732791434
  0.2599899446694839  0.0179360462425575  0.9783514307284248
  0.7554413457223762  0.4680104278694087  0.5340369485343582
  0.7554231446542272  0.5397529056744654  0.9789802573571855
  0.7553193846316449  0.0341717857578227  0.4741463920727527
  0.7586438489941567  0.9701841032442882  0.0229832214672255
  0.5121766131092785  0.9966818010586878  0.9979375025711843
  0.5081413518342646  0.9940527367591466  0.4888662822262768
  0.5086751718574640  0.4970876259293073 -0.0001393221890275
  0.5150542573097979  0.4992052896786003  0.4946817067039988
  0.0053843073331791  0.0005224260135621  0.9916388615411298
  0.0042032512977297  0.0038128581585010  0.4949623439408667
  0.0057927914546086  0.5002424890073186  0.0017109548763911
  0.0012555676896154  0.5016725084441106  0.4965223236894561
  0.2360639969122875  0.7531807390592881  0.2607510571333984
  0.2357393270924621  0.7635303927272210  0.7526981330177818
  0.2356006915301972  0.2466449725547384  0.7661835006622175
  0.7992670494020362  0.2647751902255459  0.7553812023865826
  0.2993443172096080  0.6742405300735520  0.2738995950813149
  0.2482627134607298  0.8231393610486452  0.1883695851544075
  0.2598233201323650  0.6924272893207533  0.8204440920628697
  0.2689706281882127  0.7639377756785797  0.6548780908627700
  0.3107331645654239  0.1774723139786417  0.7560437298070452
  0.2374314249984503  0.3395129209566823  0.7245658609505378
  0.6934082708421928  0.2163614035419427  0.7332205631499287
  0.1683717252521979  0.7612128151911814  0.3134129730876697
  0.2851400138664855  0.6228662981539628  0.3331201084346901
  0.3639430763371478  0.6628332532899995  0.2275324285418984
  0.3100482454289898  0.8196795806236047  0.1363273636186199
  0.1949517784527132  0.8819251022877989  0.1832406027462581
  0.1840700657190897  0.8268886204375907  0.7796525337648921
  0.2250675648674250  0.6947319103203337  0.8928692978328711
  0.3118863625514236  0.6333988180662353  0.8024771909612023
  0.3130888869420155  0.7047331361141996  0.6224554537158752
  0.2513289262762090  0.8254042123482743  0.6078904227917440
  0.1665308549970615  0.2252484449636926  0.8126319700934971
  0.3051470536794650  0.1094355931895957  0.7963061462753772
  0.3758202360609382  0.1908076022630572  0.7103434966106561
  0.3001701474684855  0.3661010687450041  0.6822737424730988
  0.1741497353280750  0.3883784618231532  0.7337578063478938
  0.6556110603046726  0.2487704157887746  0.6696531770058416
  0.6438522050102757  0.2262575789618780  0.7987943876781057
  0.6960690919269107  0.1361849306017583  0.7163100448918244
  0.7900200781531852  0.3492941932433885  0.7730954750841292
  0.8334513442556593  0.2276859614208606  0.8233969305418921
  0.8494440268497495  0.2530816682909364  0.6862567527322558
 
  0.00000000E+00  0.00000000E+00  0.00000000E+00
  0.00000000E+00  0.00000000E+00  0.00000000E+00
  0.00000000E+00  0.00000000E+00  0.00000000E+00
  0.00000000E+00  0.00000000E+00  0.00000000E+00
  0.00000000E+00  0.00000000E+00  0.00000000E+00
  0.00000000E+00  0.00000000E+00  0.00000000E+00
  0.00000000E+00  0.00000000E+00  0.00000000E+00
  0.00000000E+00  0.00000000E+00  0.00000000E+00
  0.00000000E+00  0.00000000E+00  0.00000000E+00
  0.00000000E+00  0.00000000E+00  0.00000000E+00
  0.00000000E+00  0.00000000E+00  0.00000000E+00
  0.00000000E+00  0.00000000E+00  0.00000000E+00
  0.00000000E+00  0.00000000E+00  0.00000000E+00
  0.00000000E+00  0.00000000E+00  0.00000000E+00
  0.00000000E+00  0.00000000E+00  0.00000000E+00
  0.00000000E+00  0.00000000E+00  0.00000000E+00
  0.00000000E+00  0.00000000E+00  0.00000000E+00
  0.00000000E+00  0.00000000E+00  0.00000000E+00
  0.00000000E+00  0.00000000E+00  0.00000000E+00
  0.00000000E+00  0.00000000E+00  0.00000000E+00
  0.00000000E+00  0.00000000E+00  0.00000000E+00
  0.00000000E+00  0.00000000E+00  0.00000000E+00
  0.00000000E+00  0.00000000E+00  0.00000000E+00
  0.00000000E+00  0.00000000E+00  0.00000000E+00
  0.00000000E+00  0.00000000E+00  0.00000000E+00
  0.00000000E+00  0.00000000E+00  0.00000000E+00
  0.00000000E+00  0.00000000E+00  0.00000000E+00
  0.00000000E+00  0.00000000E+00  0.00000000E+00
  0.00000000E+00  0.00000000E+00  0.00000000E+00
  0.00000000E+00  0.00000000E+00  0.00000000E+00
  0.00000000E+00  0.00000000E+00  0.00000000E+00
  0.00000000E+00  0.00000000E+00  0.00000000E+00
  0.00000000E+00  0.00000000E+00  0.00000000E+00
  0.00000000E+00  0.00000000E+00  0.00000000E+00
  0.00000000E+00  0.00000000E+00  0.00000000E+00
  0.00000000E+00  0.00000000E+00  0.00000000E+00
  0.00000000E+00  0.00000000E+00  0.00000000E+00
  0.00000000E+00  0.00000000E+00  0.00000000E+00
  0.00000000E+00  0.00000000E+00  0.00000000E+00
  0.00000000E+00  0.00000000E+00  0.00000000E+00
  0.00000000E+00  0.00000000E+00  0.00000000E+00
  0.00000000E+00  0.00000000E+00  0.00000000E+00
  0.00000000E+00  0.00000000E+00  0.00000000E+00
  0.00000000E+00  0.00000000E+00  0.00000000E+00
  0.00000000E+00  0.00000000E+00  0.00000000E+00
  0.00000000E+00  0.00000000E+00  0.00000000E+00
  0.00000000E+00  0.00000000E+00  0.00000000E+00
  0.00000000E+00  0.00000000E+00  0.00000000E+00
  0.00000000E+00  0.00000000E+00  0.00000000E+00
  0.00000000E+00  0.00000000E+00  0.00000000E+00
  0.00000000E+00  0.00000000E+00  0.00000000E+00
  0.00000000E+00  0.00000000E+00  0.00000000E+00
  0.00000000E+00  0.00000000E+00  0.00000000E+00
  0.00000000E+00  0.00000000E+00  0.00000000E+00
  0.00000000E+00  0.00000000E+00  0.00000000E+00
  0.00000000E+00  0.00000000E+00  0.00000000E+00
  0.00000000E+00  0.00000000E+00  0.00000000E+00
  0.00000000E+00  0.00000000E+00  0.00000000E+00
  0.00000000E+00  0.00000000E+00  0.00000000E+00
  0.00000000E+00  0.00000000E+00  0.00000000E+00
  0.00000000E+00  0.00000000E+00  0.00000000E+00
  0.00000000E+00  0.00000000E+00  0.00000000E+00
  0.00000000E+00  0.00000000E+00  0.00000000E+00
  0.00000000E+00  0.00000000E+00  0.00000000E+00
  0.00000000E+00  0.00000000E+00  0.00000000E+00
  0.00000000E+00  0.00000000E+00  0.00000000E+00
  0.00000000E+00  0.00000000E+00  0.00000000E+00
  0.00000000E+00  0.00000000E+00  0.00000000E+00
