cubic_FA0125MA0000Cs0875kicked          
   1.00000000000000     
    12.7497034938874592   -0.0877927537179090    0.0689971560902140
    -0.0877410580365278   12.7512384253292677   -0.0590326099082096
     0.0690031864862071   -0.0590376603221516   12.7800457023959080
   Cs   I    Pb   C    N    H 
     7    24     8     1     2     5
Direct
  0.2491330963459992  0.2438379171237598  0.2510563844921222
  0.2502751058962284  0.2490070123216980  0.7492652604564819
  0.2481523116577728  0.7528878153893668  0.7425217543253119
  0.7516873913170790  0.2482316996545242  0.2502691143045433
  0.7502753484225596  0.2484033177367443  0.7499595838287585
  0.7563741402053175  0.7515371613155067  0.2512062545840244
  0.7506330596841796  0.7523249054601274  0.7491155327424602
  0.0088013728163321  0.9972809664871677  0.2440432029331762
  0.0050102241896932  0.0150534890208564  0.7445424625647540
  0.9854168512450360  0.5019225861210923  0.2496010281161035
  0.0010137924668154  0.4979794774261891  0.7498764488531969
  0.5066961025477122  0.0076215167177054  0.2496232278652806
  0.5087978805950112  0.0062244689998473  0.7495449563211894
  0.5036254718771063  0.4870378984965471  0.2518494619281463
  0.4926960033076597  0.4897720372184898  0.7524680606618871
  0.9926322008650537  0.2538465685475043  0.9953119045106249
  0.9903480221195856  0.2536121212082653  0.4876273782018781
  0.9846801641461651  0.7541351637828889  0.9825282952677066
  0.9919232924180426  0.7541943848476230  0.5088463790171103
  0.4960354344146271  0.2501177111347836  0.9970621176353996
  0.5067292255937156  0.2495429420956907  0.5056971108652913
  0.5019535443142283  0.7497413222429596  0.9891448844066475
  0.4970139319193659  0.7487896920760420  0.5213883246123305
  0.2494211397863645  0.4952201709080891  0.5155084375066671
  0.2492932839975372  0.5004060246581156  0.0069773123846375
  0.2509198355944704  0.0020446430868326  0.4953087676720862
  0.2472155438441837  0.0068836532705857  0.9793972345391279
  0.7487332872776000  0.5137284037108883  0.5110200789400393
  0.7489771898046627  0.4959124296464122 -0.0007681365183156
  0.7508025976606328  0.0031018592947228  0.4957966014617921
  0.7476865529116683  0.0038164054695737  0.9929939154262630
  0.4966486630992324  0.0017682333434337  0.0020005084066635
  0.5010387106819286  0.0001954293110474  0.5018944476054630
  0.5015367529165177  0.5012368597041970  0.9984028142795837
  0.5006952255036126  0.4976196053247488  0.5038624305447925
  0.9955796214373407  0.0052963704495574  0.9953205123871742
  0.0005985355894385  0.0035640496821343  0.4973630209270530
  0.9980709097890584  0.5035870435714654 -0.0003883186614062
 -0.0013072241310931  0.5041988855149656  0.4988124110113570
  0.2474848451280362  0.7586980266841055  0.2530327182750847
  0.3054677216761548  0.6892907375964161  0.2996503096558966
  0.2263172022910470  0.7577252276190229  0.1525881969038718
  0.2143586431961045  0.8218080686419678  0.3011944606813861
  0.3196826561979543  0.6960250374492628  0.3779676673710115
  0.3427206589266160  0.6290777529396308  0.2610476735298529
  0.2511992413459164  0.6989401110645649  0.1031737639279245
  0.1802287497729684  0.8143073650646828  0.1220590727497070
 
  0.00000000E+00  0.00000000E+00  0.00000000E+00
  0.00000000E+00  0.00000000E+00  0.00000000E+00
  0.00000000E+00  0.00000000E+00  0.00000000E+00
  0.00000000E+00  0.00000000E+00  0.00000000E+00
  0.00000000E+00  0.00000000E+00  0.00000000E+00
  0.00000000E+00  0.00000000E+00  0.00000000E+00
  0.00000000E+00  0.00000000E+00  0.00000000E+00
  0.00000000E+00  0.00000000E+00  0.00000000E+00
  0.00000000E+00  0.00000000E+00  0.00000000E+00
  0.00000000E+00  0.00000000E+00  0.00000000E+00
  0.00000000E+00  0.00000000E+00  0.00000000E+00
  0.00000000E+00  0.00000000E+00  0.00000000E+00
  0.00000000E+00  0.00000000E+00  0.00000000E+00
  0.00000000E+00  0.00000000E+00  0.00000000E+00
  0.00000000E+00  0.00000000E+00  0.00000000E+00
  0.00000000E+00  0.00000000E+00  0.00000000E+00
  0.00000000E+00  0.00000000E+00  0.00000000E+00
  0.00000000E+00  0.00000000E+00  0.00000000E+00
  0.00000000E+00  0.00000000E+00  0.00000000E+00
  0.00000000E+00  0.00000000E+00  0.00000000E+00
  0.00000000E+00  0.00000000E+00  0.00000000E+00
  0.00000000E+00  0.00000000E+00  0.00000000E+00
  0.00000000E+00  0.00000000E+00  0.00000000E+00
  0.00000000E+00  0.00000000E+00  0.00000000E+00
  0.00000000E+00  0.00000000E+00  0.00000000E+00
  0.00000000E+00  0.00000000E+00  0.00000000E+00
  0.00000000E+00  0.00000000E+00  0.00000000E+00
  0.00000000E+00  0.00000000E+00  0.00000000E+00
  0.00000000E+00  0.00000000E+00  0.00000000E+00
  0.00000000E+00  0.00000000E+00  0.00000000E+00
  0.00000000E+00  0.00000000E+00  0.00000000E+00
  0.00000000E+00  0.00000000E+00  0.00000000E+00
  0.00000000E+00  0.00000000E+00  0.00000000E+00
  0.00000000E+00  0.00000000E+00  0.00000000E+00
  0.00000000E+00  0.00000000E+00  0.00000000E+00
  0.00000000E+00  0.00000000E+00  0.00000000E+00
  0.00000000E+00  0.00000000E+00  0.00000000E+00
  0.00000000E+00  0.00000000E+00  0.00000000E+00
  0.00000000E+00  0.00000000E+00  0.00000000E+00
  0.00000000E+00  0.00000000E+00  0.00000000E+00
  0.00000000E+00  0.00000000E+00  0.00000000E+00
  0.00000000E+00  0.00000000E+00  0.00000000E+00
  0.00000000E+00  0.00000000E+00  0.00000000E+00
  0.00000000E+00  0.00000000E+00  0.00000000E+00
  0.00000000E+00  0.00000000E+00  0.00000000E+00
  0.00000000E+00  0.00000000E+00  0.00000000E+00
  0.00000000E+00  0.00000000E+00  0.00000000E+00
