hexa_FA0750MA0000Cs0250                 
   1.00000000000000     
    18.9131878724700861   -0.0026842343787134   -0.0000038297675548
    -9.4586452031185306   14.5529875562187705    0.0000013911714442
    -0.0000015450353663   -0.0000002841144643    7.7550523209245261
   Pb   I    N    C    H    Cs
     8    24    12     6    30     2
Direct
  0.4999769232509982  0.4999518101887543  0.9389180702286853
  0.4998905778548519  0.9999246889218901  0.9390661181750640
  0.0000142479685074  0.5000265739011782  0.9389457239025063
  0.0000354610866864  0.9999240027716967  0.9390626914192987
 -0.0000354079113443  0.0000761278386511  0.4390627105459546
 -0.0000142133475415  0.4999732282861440  0.4389460772594381
  0.5001087152141526  0.0000749434032118  0.4390656127186416
  0.5000230759358065  0.5000481594601970  0.4389180827260342
  0.4179688187797945  0.0812576710257176  0.1889718107679132
  0.4185231015982484  0.5814251962103966  0.1888167106494639
  0.9159660556532868  0.0797947679835970  0.1891695733420673
  0.9250312010296649  0.5878645057296512  0.1888754015757743
  0.4109732066621122  0.3219266204607665  0.1894052171089409
  0.4035637144087497  0.8227427562071259  0.1894151477332831
  0.9100756732612487  0.3201406501762398  0.1896462222385892
  0.9191883890961381  0.8227458766586672  0.1894149972160851
  0.1633313076066697  0.0812727646558937  0.1889696985303627
  0.1628783219401439  0.5878784568288395  0.1888731926851564
  0.6638610962779248  0.0797990132436556  0.1891851172322740
  0.6629444275450233  0.5814444188766353  0.1888149331580561
  0.0749695258874511  0.4121362300507354  0.6888755853277914
  0.0840337705889868  0.9202050478176670  0.6891697025446141
  0.5814768400454720  0.4185746825690421  0.6888168760638732
  0.5820300540437071  0.9187413475272637  0.6889720679831702
  0.0808118907025163  0.1772540514529702  0.6894149976808892
  0.0899243794368594  0.6798596376662763  0.6896462011075742
  0.5964365489054283  0.1772569132755537  0.6894152601520548
  0.5890267686183956  0.6780733517640321  0.6894052879142305
  0.3370555961989680  0.4185555646314830  0.6888146346674725
  0.3361390016503414  0.9202008846210946  0.6891846631370148
  0.8371215734085099  0.4121218790032152  0.6888730151513132
  0.8366685743170464  0.9187269492073683  0.6889693965350818
  0.2221018338780366  0.3212359108070877  0.1865208199031008
  0.7225334547237536  0.3217045429411197  0.1865421348312788
  0.7212651066302453  0.8190861286267564  0.1865780986330404
  0.0992099444429878  0.3217105912315016  0.1865731928452722
  0.5991841130916844  0.3212630502140112  0.1865565931423267
  0.5978899842032115  0.8190999032626103  0.1866112151828786
  0.2787349387463930  0.1809138326353440  0.6865787441368260
  0.2774664460548135  0.6782953348668161  0.6865428123880923
  0.7778980820439610  0.6787639693891745  0.6865217141038135
  0.4021100159586704  0.1808999835843814  0.6866108938314143
  0.4008157076875509  0.6787367125117323  0.6865554849306613
  0.9007899916701620  0.6782893016572562  0.6865722824070942
  0.1815506992534801  0.3630471313305729  0.1863979854656413
  0.6815616789210783  0.3630586106048946  0.1864006924946393
  0.6802954287334467  0.8605065856864341  0.1864459002700657
  0.3197045058092299  0.1394933189685804  0.6864460458097275
  0.3184380979845012  0.6369412095603302  0.6864005462330441
  0.8184491642883200  0.6369527473884586  0.6863979831567623
  0.2192902951397523  0.4382555543241709  0.1861561897426822
  0.7190711010125606  0.4382667338151517  0.1861601801866489
  0.7179232299267403  0.9357195760064161  0.1862051355646973
  0.2820767241692283  0.0642803350704515  0.6862052912851972
  0.2809286421227055  0.5617330819653998  0.6861601097264559
  0.7807096253767498  0.5617443301739246  0.6861561704749409
  0.1928101996539079  0.2509062927359409  0.1868018871337953
  0.6934967832352686  0.2515358087477234  0.1868132736100008
  0.6922302399559161  0.7487636398530599  0.1868436196072998
  0.2865739596348614  0.3585356749371144  0.1865165103852448
  0.7870189706829676  0.3594650507758664  0.1865142927320392
  0.7857649624153367  0.8567821566218023  0.1865586190913267
  0.0725116400746642  0.3594802250236773  0.1865603874172565
  0.5720339360208929  0.3585679596969651  0.1865632391828143
  0.5711132851402351  0.8568055481921125  0.1865968068560957
  0.0580425502125556  0.2515396897892517  0.1868424671873987
  0.5581152932871675  0.2509319008256409  0.1868323884631802
  0.5565685256907288  0.7487765862364326  0.1868729897764020
  0.3077698189023180  0.2512363056056185  0.6868440308383473
  0.3065031264537464  0.7484640698701881  0.6868138478688098
  0.8071897064298208  0.7490935896710170  0.6868025293995011
  0.2142350491752774  0.1432178626148003  0.6865592447107504
  0.2129808953134884  0.6405348102202528  0.6865152647281548
  0.7134259372387514  0.6414642108899742  0.6865174920132325
  0.4288866522812389  0.1431943151554179  0.6865963071206208
  0.4279658507441050  0.6414317790614519  0.6865621341588211
  0.9274882485079129  0.6405196730350537  0.6865593250193608
  0.4434314679455331  0.2512233100074268  0.6868726764485542
  0.4418845327851647  0.7490678521635287  0.6868315672072610
  0.9419573538351165  0.7484602252002146  0.6868417723274346
  0.1707569532859839  0.8413214345068241  0.1858244538891799
  0.8292361606268650  0.1586731558830399  0.6858204375167841
 
  0.00000000E+00  0.00000000E+00  0.00000000E+00
  0.00000000E+00  0.00000000E+00  0.00000000E+00
  0.00000000E+00  0.00000000E+00  0.00000000E+00
  0.00000000E+00  0.00000000E+00  0.00000000E+00
  0.00000000E+00  0.00000000E+00  0.00000000E+00
  0.00000000E+00  0.00000000E+00  0.00000000E+00
  0.00000000E+00  0.00000000E+00  0.00000000E+00
  0.00000000E+00  0.00000000E+00  0.00000000E+00
  0.00000000E+00  0.00000000E+00  0.00000000E+00
  0.00000000E+00  0.00000000E+00  0.00000000E+00
  0.00000000E+00  0.00000000E+00  0.00000000E+00
  0.00000000E+00  0.00000000E+00  0.00000000E+00
  0.00000000E+00  0.00000000E+00  0.00000000E+00
  0.00000000E+00  0.00000000E+00  0.00000000E+00
  0.00000000E+00  0.00000000E+00  0.00000000E+00
  0.00000000E+00  0.00000000E+00  0.00000000E+00
  0.00000000E+00  0.00000000E+00  0.00000000E+00
  0.00000000E+00  0.00000000E+00  0.00000000E+00
  0.00000000E+00  0.00000000E+00  0.00000000E+00
  0.00000000E+00  0.00000000E+00  0.00000000E+00
  0.00000000E+00  0.00000000E+00  0.00000000E+00
  0.00000000E+00  0.00000000E+00  0.00000000E+00
  0.00000000E+00  0.00000000E+00  0.00000000E+00
  0.00000000E+00  0.00000000E+00  0.00000000E+00
  0.00000000E+00  0.00000000E+00  0.00000000E+00
  0.00000000E+00  0.00000000E+00  0.00000000E+00
  0.00000000E+00  0.00000000E+00  0.00000000E+00
  0.00000000E+00  0.00000000E+00  0.00000000E+00
  0.00000000E+00  0.00000000E+00  0.00000000E+00
  0.00000000E+00  0.00000000E+00  0.00000000E+00
  0.00000000E+00  0.00000000E+00  0.00000000E+00
  0.00000000E+00  0.00000000E+00  0.00000000E+00
  0.00000000E+00  0.00000000E+00  0.00000000E+00
  0.00000000E+00  0.00000000E+00  0.00000000E+00
  0.00000000E+00  0.00000000E+00  0.00000000E+00
  0.00000000E+00  0.00000000E+00  0.00000000E+00
  0.00000000E+00  0.00000000E+00  0.00000000E+00
  0.00000000E+00  0.00000000E+00  0.00000000E+00
  0.00000000E+00  0.00000000E+00  0.00000000E+00
  0.00000000E+00  0.00000000E+00  0.00000000E+00
  0.00000000E+00  0.00000000E+00  0.00000000E+00
  0.00000000E+00  0.00000000E+00  0.00000000E+00
  0.00000000E+00  0.00000000E+00  0.00000000E+00
  0.00000000E+00  0.00000000E+00  0.00000000E+00
  0.00000000E+00  0.00000000E+00  0.00000000E+00
  0.00000000E+00  0.00000000E+00  0.00000000E+00
  0.00000000E+00  0.00000000E+00  0.00000000E+00
  0.00000000E+00  0.00000000E+00  0.00000000E+00
  0.00000000E+00  0.00000000E+00  0.00000000E+00
  0.00000000E+00  0.00000000E+00  0.00000000E+00
  0.00000000E+00  0.00000000E+00  0.00000000E+00
  0.00000000E+00  0.00000000E+00  0.00000000E+00
  0.00000000E+00  0.00000000E+00  0.00000000E+00
  0.00000000E+00  0.00000000E+00  0.00000000E+00
  0.00000000E+00  0.00000000E+00  0.00000000E+00
  0.00000000E+00  0.00000000E+00  0.00000000E+00
  0.00000000E+00  0.00000000E+00  0.00000000E+00
  0.00000000E+00  0.00000000E+00  0.00000000E+00
  0.00000000E+00  0.00000000E+00  0.00000000E+00
  0.00000000E+00  0.00000000E+00  0.00000000E+00
  0.00000000E+00  0.00000000E+00  0.00000000E+00
  0.00000000E+00  0.00000000E+00  0.00000000E+00
  0.00000000E+00  0.00000000E+00  0.00000000E+00
  0.00000000E+00  0.00000000E+00  0.00000000E+00
  0.00000000E+00  0.00000000E+00  0.00000000E+00
  0.00000000E+00  0.00000000E+00  0.00000000E+00
  0.00000000E+00  0.00000000E+00  0.00000000E+00
  0.00000000E+00  0.00000000E+00  0.00000000E+00
  0.00000000E+00  0.00000000E+00  0.00000000E+00
  0.00000000E+00  0.00000000E+00  0.00000000E+00
  0.00000000E+00  0.00000000E+00  0.00000000E+00
  0.00000000E+00  0.00000000E+00  0.00000000E+00
  0.00000000E+00  0.00000000E+00  0.00000000E+00
  0.00000000E+00  0.00000000E+00  0.00000000E+00
  0.00000000E+00  0.00000000E+00  0.00000000E+00
  0.00000000E+00  0.00000000E+00  0.00000000E+00
  0.00000000E+00  0.00000000E+00  0.00000000E+00
  0.00000000E+00  0.00000000E+00  0.00000000E+00
  0.00000000E+00  0.00000000E+00  0.00000000E+00
  0.00000000E+00  0.00000000E+00  0.00000000E+00
  0.00000000E+00  0.00000000E+00  0.00000000E+00
  0.00000000E+00  0.00000000E+00  0.00000000E+00
