ortho_FA0000MA0500Cs0500                
   1.00000000000000     
    11.0597877242518532    0.0350351613789473    0.1213420329810487
     0.0372065741525428    9.6469086664023393   -0.0203873893244144
     0.1990057032478871   -0.0432610979509896   18.5207061715396222
   Pb   I    Cs   C    N    H 
     8    24     4     4     4    24
Direct
  0.1739784530040680  0.1094897758431699  0.4497629970763138
  0.1704477409403614  0.6176946189928725  0.4500264757437785
  0.8516178814919788  0.3740188221976718  0.5649895415461416
  0.8517797584253269  0.8710312166611507  0.5654047155627725
  0.3440077153354774  0.3741880241611410  0.9395459949616765
  0.3395599960909070  0.8750804212400165  0.9405169030632967
  0.6639781579822890  0.1361592997941274  0.0559607230804485
  0.6615216899547889  0.6277021843911875  0.0525641496654530
  0.1721669290400175  0.1297037442838936  0.0045772602425456
  0.1651878331480029  0.6251501702785029 -0.0003597829930190
  0.8377484389442683  0.3813709841729921  0.9928901899385164
  0.8204747943659255  0.8806796712397308  0.9789494799987511
  0.3414434690530214  0.3657656785499198  0.5141254217182548
  0.3471480989939129  0.8634877932071269  0.5064133082896249
  0.6795124478270179  0.1246035469772902  0.5175543797793739
  0.6810931442423355  0.6225662306833568  0.5102405306805533
  0.3064274544596329  0.1076619616597799  0.2954031320720271
  0.2923289053012108  0.6077069102213908  0.2936045574884532
  0.7146072341605496  0.3970479321718471  0.7153678726551164
  0.7144373556977335  0.8584603219671336  0.7160761224720137
  0.2329888399465811  0.3792918860592022  0.7878185493248853
  0.2290662589349054  0.8729866799604763  0.7884029681995173
  0.8052305805215806  0.1233405428163133  0.1961636763360736
  0.7931461475591343  0.6407565332109669  0.2026249493718771
  0.0396306743444811  0.1195125471717013  0.6122938450609235
  0.0419992417805126  0.6211178725880886  0.6136840841380374
  0.9916151090381424  0.3653505666606732  0.4003294368375848
  0.9895478256799665  0.8672275655584664  0.4016555190571011
  0.4772642659757425  0.3838395499508754  0.1067271063686843
  0.4784231994817975  0.8842582346199855  0.1024285733850915
  0.5239025074294170  0.1243847180893470  0.8903501317658623
  0.5285654850056989  0.6243353265293650  0.8928004416513984
  0.4376668880772416  0.1208544383815502  0.6778312294272979
  0.4308835141001501  0.6253629491841964  0.6742523615089545
  0.0794166450575827  0.3696095265444215  0.1749546299653740
  0.9505022677910500  0.6283540172035524  0.8246797969544949
  0.9632358151785002  0.1373997017269290  0.8317694122066117
  0.6177918209292655  0.9056044432607908  0.3494895883344490
  0.6436497996608198  0.3718770617032933  0.3401243022581235
  0.1029173606484496  0.9073107588337614  0.1815877474120026
  0.8309593471730397  0.1297688029013870  0.8207094620186074
  0.5400078286360285  0.8408249575295994  0.2944341436209374
  0.5101206270530109  0.3614916388492618  0.3480198069950176
  0.0201789981910745  0.8581388333983756  0.1250108228277231
  0.7991662341897222  0.2136568223201005  0.7901541733043310
  0.7821608977943925  0.1301178146762126  0.8690165539104725
  0.8060092640295352  0.0402540912578452  0.7924524867326708
  0.9846612189374943  0.2384209947598480  0.8549863959347777
 -0.0101640064596549  0.0561023713113741  0.8694504875814858
  0.0106778400058229  0.1235940061111203  0.7797208926532092
  0.4827361543817564  0.9141834115980683  0.2717669374585877
  0.4821814201102288  0.7655440904279016  0.3155173356084296
  0.5922153866496990  0.7946613442596396  0.2534311058084673
  0.5597042672361530  0.9554457589300539  0.3907631640859731
  0.6735633754412049  0.8252337486234632  0.3742958186742843
  0.6759465891513463  0.9817408868376544  0.3222248508298624
  0.4635368582060644  0.4415782899666054  0.3224214220248265
  0.4805418975615019  0.3649379478257740  0.4020367167272892
  0.4747470325583756  0.2699726188846130  0.3266723969108386
  0.6714398819009346  0.4757269145420806  0.3567687017774871
  0.6851950009133635  0.2949299069825081  0.3754326596250141
  0.6707979001326241  0.3522117481617919  0.2838051578612498
  0.9835536881853216  0.9387848310974316  0.0957470448350573
  0.9469955021693853  0.8029890000433949  0.1473775901016161
  0.0645439373641389  0.7927251271774468  0.0877443691785761
  0.0516105962287213 -0.0244192412868166  0.2185935752542763
  0.1379599203495371  0.8181322774474405  0.2113165330645335
  0.1778728445316887  0.9633374074709211  0.1557551641493943
 
  0.00000000E+00  0.00000000E+00  0.00000000E+00
  0.00000000E+00  0.00000000E+00  0.00000000E+00
  0.00000000E+00  0.00000000E+00  0.00000000E+00
  0.00000000E+00  0.00000000E+00  0.00000000E+00
  0.00000000E+00  0.00000000E+00  0.00000000E+00
  0.00000000E+00  0.00000000E+00  0.00000000E+00
  0.00000000E+00  0.00000000E+00  0.00000000E+00
  0.00000000E+00  0.00000000E+00  0.00000000E+00
  0.00000000E+00  0.00000000E+00  0.00000000E+00
  0.00000000E+00  0.00000000E+00  0.00000000E+00
  0.00000000E+00  0.00000000E+00  0.00000000E+00
  0.00000000E+00  0.00000000E+00  0.00000000E+00
  0.00000000E+00  0.00000000E+00  0.00000000E+00
  0.00000000E+00  0.00000000E+00  0.00000000E+00
  0.00000000E+00  0.00000000E+00  0.00000000E+00
  0.00000000E+00  0.00000000E+00  0.00000000E+00
  0.00000000E+00  0.00000000E+00  0.00000000E+00
  0.00000000E+00  0.00000000E+00  0.00000000E+00
  0.00000000E+00  0.00000000E+00  0.00000000E+00
  0.00000000E+00  0.00000000E+00  0.00000000E+00
  0.00000000E+00  0.00000000E+00  0.00000000E+00
  0.00000000E+00  0.00000000E+00  0.00000000E+00
  0.00000000E+00  0.00000000E+00  0.00000000E+00
  0.00000000E+00  0.00000000E+00  0.00000000E+00
  0.00000000E+00  0.00000000E+00  0.00000000E+00
  0.00000000E+00  0.00000000E+00  0.00000000E+00
  0.00000000E+00  0.00000000E+00  0.00000000E+00
  0.00000000E+00  0.00000000E+00  0.00000000E+00
  0.00000000E+00  0.00000000E+00  0.00000000E+00
  0.00000000E+00  0.00000000E+00  0.00000000E+00
  0.00000000E+00  0.00000000E+00  0.00000000E+00
  0.00000000E+00  0.00000000E+00  0.00000000E+00
  0.00000000E+00  0.00000000E+00  0.00000000E+00
  0.00000000E+00  0.00000000E+00  0.00000000E+00
  0.00000000E+00  0.00000000E+00  0.00000000E+00
  0.00000000E+00  0.00000000E+00  0.00000000E+00
  0.00000000E+00  0.00000000E+00  0.00000000E+00
  0.00000000E+00  0.00000000E+00  0.00000000E+00
  0.00000000E+00  0.00000000E+00  0.00000000E+00
  0.00000000E+00  0.00000000E+00  0.00000000E+00
  0.00000000E+00  0.00000000E+00  0.00000000E+00
  0.00000000E+00  0.00000000E+00  0.00000000E+00
  0.00000000E+00  0.00000000E+00  0.00000000E+00
  0.00000000E+00  0.00000000E+00  0.00000000E+00
  0.00000000E+00  0.00000000E+00  0.00000000E+00
  0.00000000E+00  0.00000000E+00  0.00000000E+00
  0.00000000E+00  0.00000000E+00  0.00000000E+00
  0.00000000E+00  0.00000000E+00  0.00000000E+00
  0.00000000E+00  0.00000000E+00  0.00000000E+00
  0.00000000E+00  0.00000000E+00  0.00000000E+00
  0.00000000E+00  0.00000000E+00  0.00000000E+00
  0.00000000E+00  0.00000000E+00  0.00000000E+00
  0.00000000E+00  0.00000000E+00  0.00000000E+00
  0.00000000E+00  0.00000000E+00  0.00000000E+00
  0.00000000E+00  0.00000000E+00  0.00000000E+00
  0.00000000E+00  0.00000000E+00  0.00000000E+00
  0.00000000E+00  0.00000000E+00  0.00000000E+00
  0.00000000E+00  0.00000000E+00  0.00000000E+00
  0.00000000E+00  0.00000000E+00  0.00000000E+00
  0.00000000E+00  0.00000000E+00  0.00000000E+00
  0.00000000E+00  0.00000000E+00  0.00000000E+00
  0.00000000E+00  0.00000000E+00  0.00000000E+00
  0.00000000E+00  0.00000000E+00  0.00000000E+00
  0.00000000E+00  0.00000000E+00  0.00000000E+00
  0.00000000E+00  0.00000000E+00  0.00000000E+00
  0.00000000E+00  0.00000000E+00  0.00000000E+00
  0.00000000E+00  0.00000000E+00  0.00000000E+00
  0.00000000E+00  0.00000000E+00  0.00000000E+00
