ortho_FA0125MA0250Cs0625                
   1.00000000000000     
    10.9238002894306856   -0.0001955623131118   -0.1531231422219680
     0.0008519087339349    9.7078541347842080   -0.1051010857262670
    -0.2563526615212579   -0.1891122891903257   18.4817557352794601
   Pb   I    Cs   C    N    H 
     8    24     5     3     4    17
Direct
  0.1596685894577510  0.1257943315105254  0.4447029526811837
  0.1678665373279441  0.6234555648546013  0.4417567396773672
  0.8453970532743265  0.3623024265579900  0.5643402487845306
  0.8487292172353051  0.8634118249283138  0.5589771670474474
  0.3403558153856045  0.3677955264162412  0.9376940453613062
  0.3394506384135111  0.8727029315925536  0.9327860700053370
  0.6753922835699060  0.1275393046631305  0.0477119275060704
  0.6732646546436012  0.6293619177445653  0.0501635411665839
  0.1707639964085693  0.1226994370322653 -0.0011198163842051
  0.1702552608591092  0.6245629783926459 -0.0055332429690071
  0.8416687521658920  0.3776020393067069  0.9879883080238997
  0.8401522434291665  0.8728864978996042  0.9852198393428813
  0.3333422683260572  0.3682269303924763  0.5162859959329857
  0.3408295566274596  0.8845149871503426  0.4957947746482850
  0.6738799229408932  0.1174372840243431  0.4999164970756309
  0.6678179285987740  0.6024211880349712  0.5061634295590626
  0.2779133433504954  0.1526134750871559  0.2891554435643094
  0.2882560745522773  0.6189195036741245  0.2922049268046073
  0.7086681063727558  0.3673058422484260  0.7108120688276002
  0.7333316448352677  0.8806126863573295  0.7093812105295519
  0.1970103755782812  0.3473659465788934  0.7881544724278654
  0.2009308169172384  0.8696296775085997  0.7832555505424432
  0.8232722495941754  0.1228617290603350  0.1940332964708125
  0.8219821123129516  0.6421103102959733  0.1937072076855235
  0.0382093482436186  0.1100060856241565  0.6070992785492623
  0.0381322483074622  0.6216246282006946  0.6107018006163961
  0.9720561404265812  0.3769379716627121  0.3980359170014554
  0.9815826847563183  0.8657073617016304  0.3921149815492831
  0.4877617213913968  0.3776970081712371  0.0988084853016770
  0.4851279761519082  0.8806462289201517  0.0945554498012118
  0.5253207760801593  0.1201572788964383  0.8839011066932109
  0.5191926510586125  0.6172508826441011  0.8805901126863844
  0.4343543405561808  0.1068721126290220  0.6722914645990897
  0.0850006853401665  0.3841008487433208  0.1607560577984360
  0.1041214532831065  0.8771213427048488  0.1654722569210986
  0.9237073402053907  0.1217919482189040  0.8278973324846114
  0.9268521225702351  0.6183321821069289  0.8217666357199063
  0.5615861275402743  0.8820152136390952  0.3306961178974189
  0.4470195834154643  0.6766194558897418  0.6621402048877462
  0.6140104796608304  0.4094216136812930  0.3079670560053257
  0.6524464567069933  0.7971382619345756  0.3447989759847603
  0.5616120836601628  0.9729173458068241  0.2791647752679506
  0.3694715537849385  0.5762200105530180  0.6991661552731848
  0.5417915223022963  0.3437672259725185  0.3651656156787196
  0.4808357330139775  0.8757480224174490  0.3641061920433040
  0.6491828996284135  0.7349081824968157  0.3890710468702973
  0.7290977599557867  0.7916590544649746  0.3141475729149183
  0.6359581907578837  0.9891675769355301  0.2473956936841976
  0.4831495520954819  0.0291288574232179  0.2696332195748485
  0.2766744380682378  0.5938411802826025  0.6900647602919397
  0.3856963295407145  0.5799495382003196  0.7550206696205611
  0.3867746602916430  0.4770358818382434  0.6814082719177981
  0.4182247769253351  0.7795181283764298  0.6801339785959954
  0.5428131519846272  0.6589027742675362  0.6777424136710708
  0.4334911149069706  0.6638249537495033  0.6036018714371245
  0.4574746532379151  0.3067029975984316  0.3448397745276144
  0.5238843680283172  0.4117913806708083  0.4076553024526262
  0.5881874730523381  0.2620403258658546  0.3889926635352572
  0.5687451371746974  0.5056705438676270  0.2930438422616640
  0.7073278962503243  0.4288414808419679  0.3289365139869460
  0.6169929590010840  0.3399213118893220  0.2606512225524916
 
  0.00000000E+00  0.00000000E+00  0.00000000E+00
  0.00000000E+00  0.00000000E+00  0.00000000E+00
  0.00000000E+00  0.00000000E+00  0.00000000E+00
  0.00000000E+00  0.00000000E+00  0.00000000E+00
  0.00000000E+00  0.00000000E+00  0.00000000E+00
  0.00000000E+00  0.00000000E+00  0.00000000E+00
  0.00000000E+00  0.00000000E+00  0.00000000E+00
  0.00000000E+00  0.00000000E+00  0.00000000E+00
  0.00000000E+00  0.00000000E+00  0.00000000E+00
  0.00000000E+00  0.00000000E+00  0.00000000E+00
  0.00000000E+00  0.00000000E+00  0.00000000E+00
  0.00000000E+00  0.00000000E+00  0.00000000E+00
  0.00000000E+00  0.00000000E+00  0.00000000E+00
  0.00000000E+00  0.00000000E+00  0.00000000E+00
  0.00000000E+00  0.00000000E+00  0.00000000E+00
  0.00000000E+00  0.00000000E+00  0.00000000E+00
  0.00000000E+00  0.00000000E+00  0.00000000E+00
  0.00000000E+00  0.00000000E+00  0.00000000E+00
  0.00000000E+00  0.00000000E+00  0.00000000E+00
  0.00000000E+00  0.00000000E+00  0.00000000E+00
  0.00000000E+00  0.00000000E+00  0.00000000E+00
  0.00000000E+00  0.00000000E+00  0.00000000E+00
  0.00000000E+00  0.00000000E+00  0.00000000E+00
  0.00000000E+00  0.00000000E+00  0.00000000E+00
  0.00000000E+00  0.00000000E+00  0.00000000E+00
  0.00000000E+00  0.00000000E+00  0.00000000E+00
  0.00000000E+00  0.00000000E+00  0.00000000E+00
  0.00000000E+00  0.00000000E+00  0.00000000E+00
  0.00000000E+00  0.00000000E+00  0.00000000E+00
  0.00000000E+00  0.00000000E+00  0.00000000E+00
  0.00000000E+00  0.00000000E+00  0.00000000E+00
  0.00000000E+00  0.00000000E+00  0.00000000E+00
  0.00000000E+00  0.00000000E+00  0.00000000E+00
  0.00000000E+00  0.00000000E+00  0.00000000E+00
  0.00000000E+00  0.00000000E+00  0.00000000E+00
  0.00000000E+00  0.00000000E+00  0.00000000E+00
  0.00000000E+00  0.00000000E+00  0.00000000E+00
  0.00000000E+00  0.00000000E+00  0.00000000E+00
  0.00000000E+00  0.00000000E+00  0.00000000E+00
  0.00000000E+00  0.00000000E+00  0.00000000E+00
  0.00000000E+00  0.00000000E+00  0.00000000E+00
  0.00000000E+00  0.00000000E+00  0.00000000E+00
  0.00000000E+00  0.00000000E+00  0.00000000E+00
  0.00000000E+00  0.00000000E+00  0.00000000E+00
  0.00000000E+00  0.00000000E+00  0.00000000E+00
  0.00000000E+00  0.00000000E+00  0.00000000E+00
  0.00000000E+00  0.00000000E+00  0.00000000E+00
  0.00000000E+00  0.00000000E+00  0.00000000E+00
  0.00000000E+00  0.00000000E+00  0.00000000E+00
  0.00000000E+00  0.00000000E+00  0.00000000E+00
  0.00000000E+00  0.00000000E+00  0.00000000E+00
  0.00000000E+00  0.00000000E+00  0.00000000E+00
  0.00000000E+00  0.00000000E+00  0.00000000E+00
  0.00000000E+00  0.00000000E+00  0.00000000E+00
  0.00000000E+00  0.00000000E+00  0.00000000E+00
  0.00000000E+00  0.00000000E+00  0.00000000E+00
  0.00000000E+00  0.00000000E+00  0.00000000E+00
  0.00000000E+00  0.00000000E+00  0.00000000E+00
  0.00000000E+00  0.00000000E+00  0.00000000E+00
  0.00000000E+00  0.00000000E+00  0.00000000E+00
  0.00000000E+00  0.00000000E+00  0.00000000E+00
