hexa_FA0000MA0750Cs0250                 
   1.00000000000000     
    17.5271316518150577    0.0599523699572574    0.6299004423896234
    -8.7368248135136142   14.8390482176648835   -0.0075777829860673
     0.2711798120037845    0.1579446791585669    7.8681822548660465
   Pb   I    N    C    H    Cs
     8    24     6     6    36     2
Direct
  0.5026765283831653  0.4999417257970478  0.9688520546959907
  0.5034913720310713  0.9911762373400146  0.9875219709215379
  0.0071039082833888  0.5019120638094519  0.9177941189013525
  0.0122306657605926  0.0001076498917976  0.9314327189107353
  0.0059125734560832  0.9991520191371336  0.4322516694382517
  0.0029422047697076  0.4961309203880187  0.4186916652502172
  0.5040759554958174  0.9953704443592791  0.4902707327072219
  0.5049291513215758  0.5007452025481437  0.4687765608565453
  0.4230286763565062  0.0845558624625809  0.2535131342156888
  0.4293968877922496  0.5930449083376527  0.2385507395497742
  0.9268592052916412  0.0861916342225953  0.1836044263069676
  0.9313089513910069  0.5933560413037872  0.1823114260433966
  0.4198413335449745  0.3274509950059832  0.2371809244703436
  0.4141142424482014  0.8229975475077171  0.2623597610183880
  0.9255961024929998  0.3271494647493052  0.1646988916463966
  0.9181919999531983  0.8267895473903601  0.1954009189936700
  0.1788658278615476  0.0743358950330661  0.1671815223031443
  0.1790986022457695  0.5824706635631025  0.1481822040718560
  0.6751768370902212  0.0753013292447561  0.2138384691304679
  0.6762243967841682  0.5856551358101860  0.1924729515041184
  0.0989724885558688  0.4192994583102482  0.6557459632612854
  0.1002329829672586  0.9151918185665668  0.6570571548358136
  0.5894705701054351  0.4101148906260410  0.7118843993898135
  0.5989126922777930  0.9166423006353529  0.7269494441907820
  0.1054031719431177  0.1727627278546181  0.6656049713460228
  0.1032309103074991  0.6749157228312650  0.6374561833077925
  0.5920223920620177  0.1687616917027693  0.7345590142119195
  0.6031172563143593  0.6737452816371098  0.7031383998503618
  0.3348245996552161  0.4149303184975645  0.7485228075185233
  0.3347658126979427  0.9054704850629475  0.7703453962765409
  0.8367661177176122  0.4146793479844778  0.7042411405124439
  0.8390799572717477  0.9129561143053823  0.7220935590120173
  0.6112412064318353  0.3112606759352163  0.1085024335231217
  0.7812554137244778  0.1430644875615653  0.7656676141279001
  0.2909804333090692  0.6436759622789086  0.5908569199279599
  0.7796199259033263  0.6273087376163806  0.7567681101776493
  0.1539175351622904  0.3615026139901383  0.0806439528978342
  0.2923993505415414  0.1324863103656570  0.5823732550862936
  0.6909621291826200  0.3478637569773513  0.2074917751914897
  0.8644164917204807  0.1720068410888051  0.6554815241445634
  0.3567793654388126  0.6725626068391689  0.7210765170361728
  0.8726261988751222  0.6821684105831112  0.6812028192273547
  0.1762820384859754  0.3280227196555315  0.2333680218529202
  0.3436021559739318  0.1604464927318123  0.7357512734627749
  0.6260288755232325  0.3389123560253046 -0.0151591454658047
  0.5627827474251076  0.3239042483467930  0.1643973046393959
  0.5805221290447666  0.2419222844123972  0.0998279251868850
  0.7178681296144596  0.4203144261717368  0.2188950983643132
  0.6712567652553437  0.3139814415912506  0.3340308804033834
  0.7404131732697101  0.3354122209483776  0.1401486605272163
  0.7476477320096899  0.1757140272651975  0.7321390040451741
  0.7923290394207381  0.1544630214793291  0.8932226489549611
  0.7358312201087656  0.0741755409226473  0.7569861418561958
  0.9076210559921110  0.2449742609895634  0.6618748355710338
  0.8972548328557532  0.1371523234160106  0.7015428838936208
  0.8475122675091337  0.1539700925918920  0.5242125958093216
  0.3217797109799909  0.6692687704612209  0.4700224757602683
  0.2457973662959204  0.6658455778354070  0.6159512374914703
  0.2524113545404850  0.5737689470234683  0.5878996656750910
  0.3922415268740664  0.7461257496820570  0.7237042031971317
  0.3215006366966782  0.6431587541098724  0.8455336343449811
  0.4033045103187951  0.6491226734527853  0.6867972290436192
  0.7391713902826201  0.6516000752579577  0.7189744462668495
  0.7749412709541224  0.6265016681052105  0.8892782547091608
  0.7490906596296304  0.5602898516016890  0.7230245936730467
  0.8985677715437648  0.7522256792968038  0.7157714199967767
  0.9123418975268256  0.6559637937014869  0.7311657219234583
  0.8732505354799132  0.6776845446085293  0.5423552981859936
  0.1623409876438582  0.4255628692037109  0.0990859739837248
  0.0883383100618484  0.3201790951934015  0.0561621075117646
  0.1942408733622232  0.3666796954981886  0.9725110293886325
  0.1302350212235321  0.3210026703319419  0.3417682647639725
  0.1703883989373170  0.2627895901890813  0.2071180350611923
  0.2443164883611455  0.3771774479584757  0.2601633675673080
  0.2684743576374450  0.1746282447685685  0.5539141187779010
  0.2362961131162591  0.0676680459384738  0.6022662421006871
  0.3299288475867660  0.1305293003219623  0.4759092062203633
  0.3027537618745434  0.1668250995096776  0.8405487359162923
  0.3591082152946122  0.1084662636816479  0.7697204113619691
  0.4048359171281470  0.2250924646397761  0.7072342283974965
  0.1590055212129407  0.8288346399604071  0.1953147728497971
  0.6887588143303526  0.8389477420661776  0.1882052550127503
 
  0.00000000E+00  0.00000000E+00  0.00000000E+00
  0.00000000E+00  0.00000000E+00  0.00000000E+00
  0.00000000E+00  0.00000000E+00  0.00000000E+00
  0.00000000E+00  0.00000000E+00  0.00000000E+00
  0.00000000E+00  0.00000000E+00  0.00000000E+00
  0.00000000E+00  0.00000000E+00  0.00000000E+00
  0.00000000E+00  0.00000000E+00  0.00000000E+00
  0.00000000E+00  0.00000000E+00  0.00000000E+00
  0.00000000E+00  0.00000000E+00  0.00000000E+00
  0.00000000E+00  0.00000000E+00  0.00000000E+00
  0.00000000E+00  0.00000000E+00  0.00000000E+00
  0.00000000E+00  0.00000000E+00  0.00000000E+00
  0.00000000E+00  0.00000000E+00  0.00000000E+00
  0.00000000E+00  0.00000000E+00  0.00000000E+00
  0.00000000E+00  0.00000000E+00  0.00000000E+00
  0.00000000E+00  0.00000000E+00  0.00000000E+00
  0.00000000E+00  0.00000000E+00  0.00000000E+00
  0.00000000E+00  0.00000000E+00  0.00000000E+00
  0.00000000E+00  0.00000000E+00  0.00000000E+00
  0.00000000E+00  0.00000000E+00  0.00000000E+00
  0.00000000E+00  0.00000000E+00  0.00000000E+00
  0.00000000E+00  0.00000000E+00  0.00000000E+00
  0.00000000E+00  0.00000000E+00  0.00000000E+00
  0.00000000E+00  0.00000000E+00  0.00000000E+00
  0.00000000E+00  0.00000000E+00  0.00000000E+00
  0.00000000E+00  0.00000000E+00  0.00000000E+00
  0.00000000E+00  0.00000000E+00  0.00000000E+00
  0.00000000E+00  0.00000000E+00  0.00000000E+00
  0.00000000E+00  0.00000000E+00  0.00000000E+00
  0.00000000E+00  0.00000000E+00  0.00000000E+00
  0.00000000E+00  0.00000000E+00  0.00000000E+00
  0.00000000E+00  0.00000000E+00  0.00000000E+00
  0.00000000E+00  0.00000000E+00  0.00000000E+00
  0.00000000E+00  0.00000000E+00  0.00000000E+00
  0.00000000E+00  0.00000000E+00  0.00000000E+00
  0.00000000E+00  0.00000000E+00  0.00000000E+00
  0.00000000E+00  0.00000000E+00  0.00000000E+00
  0.00000000E+00  0.00000000E+00  0.00000000E+00
  0.00000000E+00  0.00000000E+00  0.00000000E+00
  0.00000000E+00  0.00000000E+00  0.00000000E+00
  0.00000000E+00  0.00000000E+00  0.00000000E+00
  0.00000000E+00  0.00000000E+00  0.00000000E+00
  0.00000000E+00  0.00000000E+00  0.00000000E+00
  0.00000000E+00  0.00000000E+00  0.00000000E+00
  0.00000000E+00  0.00000000E+00  0.00000000E+00
  0.00000000E+00  0.00000000E+00  0.00000000E+00
  0.00000000E+00  0.00000000E+00  0.00000000E+00
  0.00000000E+00  0.00000000E+00  0.00000000E+00
  0.00000000E+00  0.00000000E+00  0.00000000E+00
  0.00000000E+00  0.00000000E+00  0.00000000E+00
  0.00000000E+00  0.00000000E+00  0.00000000E+00
  0.00000000E+00  0.00000000E+00  0.00000000E+00
  0.00000000E+00  0.00000000E+00  0.00000000E+00
  0.00000000E+00  0.00000000E+00  0.00000000E+00
  0.00000000E+00  0.00000000E+00  0.00000000E+00
  0.00000000E+00  0.00000000E+00  0.00000000E+00
  0.00000000E+00  0.00000000E+00  0.00000000E+00
  0.00000000E+00  0.00000000E+00  0.00000000E+00
  0.00000000E+00  0.00000000E+00  0.00000000E+00
  0.00000000E+00  0.00000000E+00  0.00000000E+00
  0.00000000E+00  0.00000000E+00  0.00000000E+00
  0.00000000E+00  0.00000000E+00  0.00000000E+00
  0.00000000E+00  0.00000000E+00  0.00000000E+00
  0.00000000E+00  0.00000000E+00  0.00000000E+00
  0.00000000E+00  0.00000000E+00  0.00000000E+00
  0.00000000E+00  0.00000000E+00  0.00000000E+00
  0.00000000E+00  0.00000000E+00  0.00000000E+00
  0.00000000E+00  0.00000000E+00  0.00000000E+00
  0.00000000E+00  0.00000000E+00  0.00000000E+00
  0.00000000E+00  0.00000000E+00  0.00000000E+00
  0.00000000E+00  0.00000000E+00  0.00000000E+00
  0.00000000E+00  0.00000000E+00  0.00000000E+00
  0.00000000E+00  0.00000000E+00  0.00000000E+00
  0.00000000E+00  0.00000000E+00  0.00000000E+00
  0.00000000E+00  0.00000000E+00  0.00000000E+00
  0.00000000E+00  0.00000000E+00  0.00000000E+00
  0.00000000E+00  0.00000000E+00  0.00000000E+00
  0.00000000E+00  0.00000000E+00  0.00000000E+00
  0.00000000E+00  0.00000000E+00  0.00000000E+00
  0.00000000E+00  0.00000000E+00  0.00000000E+00
  0.00000000E+00  0.00000000E+00  0.00000000E+00
  0.00000000E+00  0.00000000E+00  0.00000000E+00
