ortho_FA0125MA0875Cs0000                
   1.00000000000000     
    11.1005562455707150    0.0484000114577494    0.0757459896928602
     0.0464471146431762    9.5151621054685656   -0.0715425287387305
     0.1298337274827215   -0.1246555077254304   18.8784806433353509
   Pb   I    Cs   C    N    H 
     8    24     0     8     9    47
Direct
  0.1518817349323291  0.1157170971231110  0.4469964308445448
  0.1529782267618984  0.6072859773025030  0.4399061580936571
  0.8384355667265019  0.3736846102531739  0.5632653642844868
  0.8297550112628643  0.8732053739677834  0.5653001597534163
  0.3415271016120186  0.3834114926727089  0.9228140695599653
  0.3482278269156036  0.8876924913506631  0.9253604093498410
  0.6583951713258340  0.1265573873834782  0.0551767884481144
  0.6518402517738677  0.6357618350728413  0.0533577719120315
  0.1776864055372624  0.1403182469398123  0.9859553830685945
  0.1637374344830058  0.6302749189663174  0.9760556993445155
  0.8260477486163090  0.3738978738997871  0.9913469066368211
  0.8366398446798611  0.8744853803296007  0.9970802139596304
  0.3298867016028608  0.3652268931880509  0.4993780955221233
  0.3212541390746486  0.8592071582595930  0.5061500416582638
  0.6542043322081500  0.1210687208564064  0.5157807793453071
  0.6533675701947953  0.6239506102018184  0.5152662126936365
  0.3022315091581421  0.0856588061803739  0.2992385330639895
  0.2881755631456014  0.6033137787367330  0.2882407682473377
  0.7674888310428916  0.3777195559687297  0.7216348793597437
  0.7281452107620708  0.8876109977120165  0.7153550797798288
  0.2199325837176951  0.3892624997164799  0.7765340146498062
  0.2623600172091552  0.8905608824515643  0.7672189245087065
  0.7864203519274788  0.1433918412629569  0.2003494787785736
  0.7693331158424767  0.6376070739258364  0.2065804147613125
  0.0303615223269092  0.1220404888342847  0.6020961977271531
  0.0305576263422169  0.6184438087432773  0.5987138845160139
  0.9688035530136347  0.3608030857933305  0.3940000994941566
  0.9710085380584332  0.8678079781268668  0.3970417489696664
  0.4641790743657796  0.3845477360993045  0.0930801673819509
  0.4621743292116283  0.8832170511392340  0.0939428931412548
  0.5394180325942074  0.1260751054189309  0.8913330880279571
  0.5478203029746901  0.6344109743626309  0.8934286795812451
  0.0665250214084927  0.3785123745697176  0.1782202906474521
  0.6276372858150369  0.9047255802897762  0.3355552613281841
  0.0931325402341525  0.8997498264574096  0.1481780160242173
  0.4789355599108415  0.1796974967486935  0.6923618350484775
  0.9767216819143403  0.1112157801509073  0.8137880905150604
  0.4764997750652081  0.6127943769756637  0.6995264920765133
  0.5960981787356168  0.3869642701968485  0.3466556176071223
  0.9819741798934256  0.6967518885151205  0.8099140057200027
  0.1646061815867613  0.3010075369188592  0.1712585001248605
  0.0311608960312278  0.4732012107181297  0.1329373435510395
  0.5134216787882104  0.8329490688078168  0.3540038274520741
  0.0548488397082645  0.8282769533577470  0.2142392381970940
  0.3931919114545632  0.1150432171929106  0.6421405714405336
  0.8555873460643031  0.1101420691526397  0.8483709315175783
  0.3735895623031702  0.6068515528393824  0.6502438078518252
  0.5415473896231610  0.3369329694208377  0.2795141879569842
  0.8995276952616968  0.6011152061431312  0.8483911703973701
  0.0095516957223177  0.3629751633793780  0.2250349020522314
  0.1911825680006549  0.2371988396060524  0.2117477882695620
  0.2241073999278188  0.3115085908503900  0.1298325897790663
  0.0767096313620552  0.4939391774796953  0.0864928314093088
  0.9483271218002277  0.5204829306339974  0.1415750942626477
  0.4393057201534495  0.8910720412402954  0.3362009836673189
  0.5004445504160762  0.8225656656257735  0.4082971732791450
  0.5060344265725902  0.7343160481309616  0.3309298187549048
  0.6240398821089327  0.0106986731819415  0.3588096822405108
  0.7036803643682142  0.8467059780112941  0.3575585800389402
  0.6370584446445439  0.9091259987735235  0.2778651432323093
  0.9733556300530902  0.7749489985226830  0.2082108210057687
  0.0411395119894797  0.8977780822441512  0.2564493953524665
  0.1203452758760859  0.7564716244578543  0.2310583998722644
  0.0259858738323959  0.9805289195477831  0.1357662680364325
  0.1816200794228634  0.9466066571402674  0.1565049515874143
  0.0991679878887411  0.8219646584872401  0.1048510574208638
  0.3304051170128627  0.1868819588316650  0.6242259654725515
  0.3463323850799249  0.0342358514387536  0.6673842677085942
  0.4384481484336129  0.0746855527559646  0.5977525598133985
  0.4280883573666328  0.2165422213725327  0.7391606352112287
  0.5457371872472884  0.0998847874773470  0.7066571939078069
  0.5246472897627166  0.2667449115190483  0.6664252953803563
  0.7889658613022271  0.0954519140356823  0.8109227048637422
  0.8371936243578134  0.2027341082661571  0.8765010956929508
  0.8477835717743483  0.0294107270800588  0.8850292113905247
  0.9817238227673948  0.2022377817641895  0.7791407927594254
  0.0455622788951939  0.1176292862211475  0.8546487821095531
  0.9882035883969751  0.0149708864353682  0.7819835341319739
  0.3275228806990499  0.7021561554090967  0.6503275577348426
  0.3121634837295552  0.5316783637453867  0.6671554593483381
  0.4008469338385721  0.5829510098498776  0.5987368126279219
  0.4399918937796272  0.6319616838326804  0.7528923789099713
  0.5262478878583366  0.5129710218158104  0.6972088476246838
  0.5364358077118579  0.6983421304481759  0.6844749155268021
  0.5005382912379122  0.4178345770056271  0.2524381541767747
  0.4743501415292201  0.2625440105772173  0.2886493585111894
  0.6074940901488950  0.2899997200158023  0.2462492639590990
  0.5249840441128359  0.4295707864010823  0.3817323099689302
  0.6404386696354079  0.2981041955433186  0.3722568538316548
  0.6631589434544949  0.4669735872683034  0.3340672865528524
  0.8209742453618210  0.6513030853051227  0.8653952079759780
  0.9400044162733284  0.5603437850169420  0.8929337198297183
  0.8730024557826603  0.5181311980398481  0.8151013918903062
  0.9997830405524953  0.7877300112979453  0.8441091842091391
  0.0662532667856745  0.6400043044953226  0.7981210858501686
  0.9381717649822608  0.7289107267163104  0.7611038572183425
 
  0.00000000E+00  0.00000000E+00  0.00000000E+00
  0.00000000E+00  0.00000000E+00  0.00000000E+00
  0.00000000E+00  0.00000000E+00  0.00000000E+00
  0.00000000E+00  0.00000000E+00  0.00000000E+00
  0.00000000E+00  0.00000000E+00  0.00000000E+00
  0.00000000E+00  0.00000000E+00  0.00000000E+00
  0.00000000E+00  0.00000000E+00  0.00000000E+00
  0.00000000E+00  0.00000000E+00  0.00000000E+00
  0.00000000E+00  0.00000000E+00  0.00000000E+00
  0.00000000E+00  0.00000000E+00  0.00000000E+00
  0.00000000E+00  0.00000000E+00  0.00000000E+00
  0.00000000E+00  0.00000000E+00  0.00000000E+00
  0.00000000E+00  0.00000000E+00  0.00000000E+00
  0.00000000E+00  0.00000000E+00  0.00000000E+00
  0.00000000E+00  0.00000000E+00  0.00000000E+00
  0.00000000E+00  0.00000000E+00  0.00000000E+00
  0.00000000E+00  0.00000000E+00  0.00000000E+00
  0.00000000E+00  0.00000000E+00  0.00000000E+00
  0.00000000E+00  0.00000000E+00  0.00000000E+00
  0.00000000E+00  0.00000000E+00  0.00000000E+00
  0.00000000E+00  0.00000000E+00  0.00000000E+00
  0.00000000E+00  0.00000000E+00  0.00000000E+00
  0.00000000E+00  0.00000000E+00  0.00000000E+00
  0.00000000E+00  0.00000000E+00  0.00000000E+00
  0.00000000E+00  0.00000000E+00  0.00000000E+00
  0.00000000E+00  0.00000000E+00  0.00000000E+00
  0.00000000E+00  0.00000000E+00  0.00000000E+00
  0.00000000E+00  0.00000000E+00  0.00000000E+00
  0.00000000E+00  0.00000000E+00  0.00000000E+00
  0.00000000E+00  0.00000000E+00  0.00000000E+00
  0.00000000E+00  0.00000000E+00  0.00000000E+00
  0.00000000E+00  0.00000000E+00  0.00000000E+00
  0.00000000E+00  0.00000000E+00  0.00000000E+00
  0.00000000E+00  0.00000000E+00  0.00000000E+00
  0.00000000E+00  0.00000000E+00  0.00000000E+00
  0.00000000E+00  0.00000000E+00  0.00000000E+00
  0.00000000E+00  0.00000000E+00  0.00000000E+00
  0.00000000E+00  0.00000000E+00  0.00000000E+00
  0.00000000E+00  0.00000000E+00  0.00000000E+00
  0.00000000E+00  0.00000000E+00  0.00000000E+00
  0.00000000E+00  0.00000000E+00  0.00000000E+00
  0.00000000E+00  0.00000000E+00  0.00000000E+00
  0.00000000E+00  0.00000000E+00  0.00000000E+00
  0.00000000E+00  0.00000000E+00  0.00000000E+00
  0.00000000E+00  0.00000000E+00  0.00000000E+00
  0.00000000E+00  0.00000000E+00  0.00000000E+00
  0.00000000E+00  0.00000000E+00  0.00000000E+00
  0.00000000E+00  0.00000000E+00  0.00000000E+00
  0.00000000E+00  0.00000000E+00  0.00000000E+00
  0.00000000E+00  0.00000000E+00  0.00000000E+00
  0.00000000E+00  0.00000000E+00  0.00000000E+00
  0.00000000E+00  0.00000000E+00  0.00000000E+00
  0.00000000E+00  0.00000000E+00  0.00000000E+00
  0.00000000E+00  0.00000000E+00  0.00000000E+00
  0.00000000E+00  0.00000000E+00  0.00000000E+00
  0.00000000E+00  0.00000000E+00  0.00000000E+00
  0.00000000E+00  0.00000000E+00  0.00000000E+00
  0.00000000E+00  0.00000000E+00  0.00000000E+00
  0.00000000E+00  0.00000000E+00  0.00000000E+00
  0.00000000E+00  0.00000000E+00  0.00000000E+00
  0.00000000E+00  0.00000000E+00  0.00000000E+00
  0.00000000E+00  0.00000000E+00  0.00000000E+00
  0.00000000E+00  0.00000000E+00  0.00000000E+00
  0.00000000E+00  0.00000000E+00  0.00000000E+00
  0.00000000E+00  0.00000000E+00  0.00000000E+00
  0.00000000E+00  0.00000000E+00  0.00000000E+00
  0.00000000E+00  0.00000000E+00  0.00000000E+00
  0.00000000E+00  0.00000000E+00  0.00000000E+00
  0.00000000E+00  0.00000000E+00  0.00000000E+00
  0.00000000E+00  0.00000000E+00  0.00000000E+00
  0.00000000E+00  0.00000000E+00  0.00000000E+00
  0.00000000E+00  0.00000000E+00  0.00000000E+00
  0.00000000E+00  0.00000000E+00  0.00000000E+00
  0.00000000E+00  0.00000000E+00  0.00000000E+00
  0.00000000E+00  0.00000000E+00  0.00000000E+00
  0.00000000E+00  0.00000000E+00  0.00000000E+00
  0.00000000E+00  0.00000000E+00  0.00000000E+00
  0.00000000E+00  0.00000000E+00  0.00000000E+00
  0.00000000E+00  0.00000000E+00  0.00000000E+00
  0.00000000E+00  0.00000000E+00  0.00000000E+00
  0.00000000E+00  0.00000000E+00  0.00000000E+00
  0.00000000E+00  0.00000000E+00  0.00000000E+00
  0.00000000E+00  0.00000000E+00  0.00000000E+00
  0.00000000E+00  0.00000000E+00  0.00000000E+00
  0.00000000E+00  0.00000000E+00  0.00000000E+00
  0.00000000E+00  0.00000000E+00  0.00000000E+00
  0.00000000E+00  0.00000000E+00  0.00000000E+00
  0.00000000E+00  0.00000000E+00  0.00000000E+00
  0.00000000E+00  0.00000000E+00  0.00000000E+00
  0.00000000E+00  0.00000000E+00  0.00000000E+00
  0.00000000E+00  0.00000000E+00  0.00000000E+00
  0.00000000E+00  0.00000000E+00  0.00000000E+00
  0.00000000E+00  0.00000000E+00  0.00000000E+00
  0.00000000E+00  0.00000000E+00  0.00000000E+00
  0.00000000E+00  0.00000000E+00  0.00000000E+00
  0.00000000E+00  0.00000000E+00  0.00000000E+00
