cubic_FA0000MA0125Cs0875kicked          
   1.00000000000000     
    12.8164380164044722   -0.0003171801895416   -0.0627034980082744
     0.0002121627048593   12.5524727216932241    0.0007482489908396
    -0.0617399673227419    0.0007905245397646   12.6386206680411153
   Cs   I    Pb   C    N    H 
     7    24     8     1     1     6
Direct
  0.2536943229937378  0.2564249263442523  0.2494274753904394
  0.2543651456802226  0.2511131190152663  0.7249043171056534
  0.2397532749625233  0.7572647429447068  0.2337811505630572
  0.2408531847831423  0.7359108474954399  0.7306877743950766
  0.7629618707630790  0.2487972349374118  0.2730818347342354
  0.7627642366004947  0.2509324452320532  0.7342064615423145
  0.7579445473337034  0.7494994881786232  0.2509734939087293
 -0.0079159675294932  0.9646247408865842  0.2436668462863024
  0.0133683933937294  0.0463833177902693  0.7440583490863855
  0.0023726387627375  0.5362225307217042  0.2428501617209055
  0.0081560307455304  0.4568994430513191  0.7430201559575332
  0.5016319789519410 -0.0626107216000159  0.2539801633495158
  0.5062146440761304  0.0636620012047246  0.7536443071331500
  0.4965574864172104  0.5648744485187421  0.2528855464603117
  0.5078427666400651  0.4442560672235717  0.7529327272843660
  0.9395728299821656  0.2496559282784985  0.0216383456188283
  0.0164104751799406  0.2510208240037689  0.4525992376685752
  0.0495186087990484  0.7497283177737294  0.9680141007821091
  0.0150175481824088  0.7508407508513314  0.5222810136850792
  0.5319446781456093  0.2504946196564589  0.0695021935955236
  0.5000858745044054  0.2512043944184816  0.4444903554166160
  0.4490459407444208  0.7504722779250427 -0.0417170532157752
  0.5056310427733536  0.7506747034452714  0.5741061113520658
  0.2557560259271334  0.5002748553309035  0.4957728926407462
  0.2479195387156516  0.4487651218114279  0.9981978318566515
  0.2558045155749175  0.0026147179354569  0.4914429846200039
  0.2466854150931353  0.0500082315233404  0.0112376474134381
  0.7549155645237713  0.4927079851420885  0.4897092978001703
  0.7470114144989138  0.5434931545355817  0.9955482004970297
  0.7549877279620515  0.0110526749323454  0.4938634990554102
  0.7452164429606927  0.9496797347957521 -0.0107795741760108
  0.4979300867849971  0.0027632098812622  0.0046548199212632
  0.5045964628030681  0.0002771661657459  0.5035516219414906
  0.4967517103243209  0.4974710473650108  0.0050839314743058
  0.5047759465425041  0.5017242907839459  0.5015137736238316
  0.0005880726309713  0.0019630706863919 -0.0066260742614968
  0.0052373710252171  0.0008576617670627  0.4957129766179187
  0.0006835487097984  0.4978010775793910 -0.0068496143763346
  0.0043614893417766  0.5008918116432191  0.4942547903227966
  0.7861031951881533  0.7541885440789160  0.7261792155469421
  0.6928359489431987  0.7416867597453223  0.7943269748526385
  0.6248761675323762  0.7366654220740506  0.7486264367869437
  0.6858548476538832  0.8058861856903464  0.8461872253155297
  0.6987691477157373  0.6739460364118302  0.8420530375612733
  0.7762041612964402  0.8256986388776678  0.6775334893562643
  0.8553217471912388  0.7621789971093862  0.7769791609020262
  0.7929345010444772  0.6841242217888641  0.6751510042495521
 
  0.00000000E+00  0.00000000E+00  0.00000000E+00
  0.00000000E+00  0.00000000E+00  0.00000000E+00
  0.00000000E+00  0.00000000E+00  0.00000000E+00
  0.00000000E+00  0.00000000E+00  0.00000000E+00
  0.00000000E+00  0.00000000E+00  0.00000000E+00
  0.00000000E+00  0.00000000E+00  0.00000000E+00
  0.00000000E+00  0.00000000E+00  0.00000000E+00
  0.00000000E+00  0.00000000E+00  0.00000000E+00
  0.00000000E+00  0.00000000E+00  0.00000000E+00
  0.00000000E+00  0.00000000E+00  0.00000000E+00
  0.00000000E+00  0.00000000E+00  0.00000000E+00
  0.00000000E+00  0.00000000E+00  0.00000000E+00
  0.00000000E+00  0.00000000E+00  0.00000000E+00
  0.00000000E+00  0.00000000E+00  0.00000000E+00
  0.00000000E+00  0.00000000E+00  0.00000000E+00
  0.00000000E+00  0.00000000E+00  0.00000000E+00
  0.00000000E+00  0.00000000E+00  0.00000000E+00
  0.00000000E+00  0.00000000E+00  0.00000000E+00
  0.00000000E+00  0.00000000E+00  0.00000000E+00
  0.00000000E+00  0.00000000E+00  0.00000000E+00
  0.00000000E+00  0.00000000E+00  0.00000000E+00
  0.00000000E+00  0.00000000E+00  0.00000000E+00
  0.00000000E+00  0.00000000E+00  0.00000000E+00
  0.00000000E+00  0.00000000E+00  0.00000000E+00
  0.00000000E+00  0.00000000E+00  0.00000000E+00
  0.00000000E+00  0.00000000E+00  0.00000000E+00
  0.00000000E+00  0.00000000E+00  0.00000000E+00
  0.00000000E+00  0.00000000E+00  0.00000000E+00
  0.00000000E+00  0.00000000E+00  0.00000000E+00
  0.00000000E+00  0.00000000E+00  0.00000000E+00
  0.00000000E+00  0.00000000E+00  0.00000000E+00
  0.00000000E+00  0.00000000E+00  0.00000000E+00
  0.00000000E+00  0.00000000E+00  0.00000000E+00
  0.00000000E+00  0.00000000E+00  0.00000000E+00
  0.00000000E+00  0.00000000E+00  0.00000000E+00
  0.00000000E+00  0.00000000E+00  0.00000000E+00
  0.00000000E+00  0.00000000E+00  0.00000000E+00
  0.00000000E+00  0.00000000E+00  0.00000000E+00
  0.00000000E+00  0.00000000E+00  0.00000000E+00
  0.00000000E+00  0.00000000E+00  0.00000000E+00
  0.00000000E+00  0.00000000E+00  0.00000000E+00
  0.00000000E+00  0.00000000E+00  0.00000000E+00
  0.00000000E+00  0.00000000E+00  0.00000000E+00
  0.00000000E+00  0.00000000E+00  0.00000000E+00
  0.00000000E+00  0.00000000E+00  0.00000000E+00
  0.00000000E+00  0.00000000E+00  0.00000000E+00
  0.00000000E+00  0.00000000E+00  0.00000000E+00
