cubic_FA0750MA0250Cs0000                
   1.00000000000000     
    12.7397747196661477   -0.3984339565946791    0.1300123023794260
    -0.3970476038521478   12.6632078961332191   -0.2400774901843754
     0.1295376961354875   -0.2383225039396447   12.7135133593459653
   Cs   I    Pb   C    N    H 
     0    24     8     8    14    42
Direct
  0.0181737346197260  0.0004416288745115  0.2400574023107608
  0.9872707302757078  0.0088048761726968  0.7413101537349248
  0.0190947401423327  0.5284695536857322  0.2449018113497859
  0.9931559514307241  0.4810971587941235  0.7434341283239005
  0.5108931504136702  0.9952352062371280  0.2459241992086857
  0.5322344880194776  0.0246523607229480  0.7467037748568686
  0.5045193219027559  0.5195621557722467  0.2411006425058961
  0.5236793944770908  0.4941351607720486  0.7399036065259538
  0.9942143605055738  0.2481273349072203  0.0036845038763271
  0.0174958982402014  0.2627409702437836  0.4660282705995842
  0.0653861432598351  0.7487306714058910  0.9722728166536154
  0.9930748021777286  0.7601300917314388  0.5148186260878059
  0.5525072747761406  0.2536734045375310  0.0209534022765350
  0.4773927216528417  0.2609480078481334  0.4887476609112794
  0.4602743343940954  0.7471479729604427  0.9747440139348614
  0.5098863625342321  0.7628673967520347  0.4989920999881117
  0.2517367095631797  0.5269768255106456  0.5118894510390229
  0.2610625077084271  0.4581855559989879  0.9849773482798525
  0.2504497774701722  0.0156932223670259  0.5043352195080174
  0.2688032244832885  0.0418533531768446  0.9862965162796499
  0.7491062611815205  0.4855660404655441  0.4596314126922717
  0.7650730573369336  0.5390382077949751  0.9901553395270178
  0.7503504475167441  0.0442074109799698  0.4795081319645434
  0.7623121881707522  0.9614719725036681  0.0197284019064549
  0.5155096127662639  0.9980264815421457  0.9915319283662208
  0.4995363844998895  0.0061889333717305  0.4990402334140129
  0.5101981365122993  0.5033415814619524  0.9901402550275378
  0.5028613001568755  0.5153083259403749  0.4941748090265128
  0.0128163060530230  0.9971077755198406  0.9875555215618360
  0.0069098595531992  0.0128040076854903  0.4930256658957032
  0.0103530995838550  0.5043437601987457  0.9933360359701715
  0.9952692691077988  0.5094530204070655  0.4951688207569129
  0.7477880461824602  0.2816590683648780  0.7617041804367369
  0.7596889845268966  0.7132325343517713  0.2420121534176683
  0.2387255884795034  0.2493280589626053  0.7648004294714189
  0.2194567470651821  0.7606075545570548  0.2470908632279600
  0.2517152460379923  0.2469751862837362  0.2706474073569838
  0.7455444701117311  0.7564284877104178  0.7649672553414559
  0.7939044915081745  0.2721509088031057  0.2359683234878369
  0.2714156322822998  0.7894975238996504  0.7321826754920475
  0.8061924948855025  0.2105504113601626  0.7987569345460784
  0.7072649261558007  0.2767678523527349  0.6673958195206516
  0.8567183425352994  0.7538497404695618  0.2344488469383464
  0.6749265903095012  0.7646084395188024  0.2293770605383268
  0.3304803196839344  0.2077527262755063  0.7616242988311114
  0.2048245358952882  0.3100991113040364  0.6931255572595491
  0.2772408478376429  0.6784612897169902  0.2490011831260019
  0.2533736299768156  0.8586855344738284  0.2326537222361453
  0.3424475823753769  0.2218876703154368  0.2295369504659842
  0.1829018661931350  0.3010528064454142  0.2239633944865964
  0.8332635752816442  0.7075495578737372  0.7576512439605637
  0.7213821136931138  0.8318984556420800  0.7035330768393070
  0.6835676338947545  0.2434098516511378  0.2696617142898592
  0.2513255072248721  0.6771497999840725  0.7619098638254311
  0.7310140198265763  0.3498303679038371  0.8133127146769300
  0.8413429358103802  0.2240985696131994  0.8703485757124182
  0.8300300972110166  0.1463342539828306  0.7551262172966432
  0.7190936669395781  0.2155224932491570  0.6140283400001584
  0.6601359401933379  0.3344850475875701  0.6466846263428985
  0.7482829730147581  0.6300553219489023  0.2619419162169483
  0.9163488056355753  0.7050209581802013  0.2447601500841609
  0.8764696517953601  0.8315216818265376  0.2190897574010086
  0.6772320413791527  0.8415888917632675  0.2073614740590834
  0.6035101968594238  0.7240488459359328  0.2374643416969182
  0.1866117959854862  0.2316012803150082  0.8321718550483064
  0.3470607654037454  0.1570481051200281  0.8189516156165607
  0.3831394469931553  0.2190102087682277  0.7006260696587153
  0.2488975838242926  0.3327199692508733  0.6288738550494607
  0.1341193477219614  0.3436158609462844  0.7042424642429822
  0.1349012955303064  0.7447220430813805  0.2590511195758290
  0.2403708619425765  0.6059788755313994  0.2612893312652594
  0.3570056024345410  0.6813783917288044  0.2382580347780694
  0.3313221444574481  0.8828089289954807  0.2239176612179619
  0.1988148446735710  0.9150745735158371  0.2329752385090402
  0.2314212601267813  0.2208610973963214  0.3499578945476645
  0.3904324333234717  0.1787347250769350  0.2719475933342937
  0.3680389309104061  0.2406883869380982  0.1552928594294070
  0.1954786200940667  0.3301641276144950  0.1502205999881644
  0.1139823908832554  0.3153545933060659  0.2629860648919344
  0.6885695455351442  0.7322881552282041  0.8262485159114590
  0.8448048280013934  0.6485700915210372  0.8079926587545825
  0.8897751137287191  0.7249347041318966  0.7009421373627421
  0.7714547340923013  0.8601669700168310  0.6460888255856392
  0.6533358742161762  0.8698977248807497  0.7164589994414897
  0.6330703563968259  0.2475920902832055  0.2062332477925905
  0.6588201110558748  0.2933346155212180  0.3305846665399185
  0.6753905726460170  0.1670317078197333  0.2964972251930587
  0.7985400323565459  0.3540255945556231  0.2105739947720661
  0.8454218641935839  0.2647491811083535  0.3028189574279494
  0.8155383192458142  0.2186757890064059  0.1705965566196504
  0.1760931064041811  0.6648417488340601  0.7936750404934028
  0.3030709566244453  0.6578790340133920  0.8190678237800276
  0.2586328167951685  0.6253927310653498  0.6963622518613813
  0.2535560588002834  0.8407573949949818  0.8005885158022452
  0.3543194749170313  0.8018531105882674  0.7086421131106052
  0.2210254858152077  0.8045778385273451  0.6663192189087082
 
  0.00000000E+00  0.00000000E+00  0.00000000E+00
  0.00000000E+00  0.00000000E+00  0.00000000E+00
  0.00000000E+00  0.00000000E+00  0.00000000E+00
  0.00000000E+00  0.00000000E+00  0.00000000E+00
  0.00000000E+00  0.00000000E+00  0.00000000E+00
  0.00000000E+00  0.00000000E+00  0.00000000E+00
  0.00000000E+00  0.00000000E+00  0.00000000E+00
  0.00000000E+00  0.00000000E+00  0.00000000E+00
  0.00000000E+00  0.00000000E+00  0.00000000E+00
  0.00000000E+00  0.00000000E+00  0.00000000E+00
  0.00000000E+00  0.00000000E+00  0.00000000E+00
  0.00000000E+00  0.00000000E+00  0.00000000E+00
  0.00000000E+00  0.00000000E+00  0.00000000E+00
  0.00000000E+00  0.00000000E+00  0.00000000E+00
  0.00000000E+00  0.00000000E+00  0.00000000E+00
  0.00000000E+00  0.00000000E+00  0.00000000E+00
  0.00000000E+00  0.00000000E+00  0.00000000E+00
  0.00000000E+00  0.00000000E+00  0.00000000E+00
  0.00000000E+00  0.00000000E+00  0.00000000E+00
  0.00000000E+00  0.00000000E+00  0.00000000E+00
  0.00000000E+00  0.00000000E+00  0.00000000E+00
  0.00000000E+00  0.00000000E+00  0.00000000E+00
  0.00000000E+00  0.00000000E+00  0.00000000E+00
  0.00000000E+00  0.00000000E+00  0.00000000E+00
  0.00000000E+00  0.00000000E+00  0.00000000E+00
  0.00000000E+00  0.00000000E+00  0.00000000E+00
  0.00000000E+00  0.00000000E+00  0.00000000E+00
  0.00000000E+00  0.00000000E+00  0.00000000E+00
  0.00000000E+00  0.00000000E+00  0.00000000E+00
  0.00000000E+00  0.00000000E+00  0.00000000E+00
  0.00000000E+00  0.00000000E+00  0.00000000E+00
  0.00000000E+00  0.00000000E+00  0.00000000E+00
  0.00000000E+00  0.00000000E+00  0.00000000E+00
  0.00000000E+00  0.00000000E+00  0.00000000E+00
  0.00000000E+00  0.00000000E+00  0.00000000E+00
  0.00000000E+00  0.00000000E+00  0.00000000E+00
  0.00000000E+00  0.00000000E+00  0.00000000E+00
  0.00000000E+00  0.00000000E+00  0.00000000E+00
  0.00000000E+00  0.00000000E+00  0.00000000E+00
  0.00000000E+00  0.00000000E+00  0.00000000E+00
  0.00000000E+00  0.00000000E+00  0.00000000E+00
  0.00000000E+00  0.00000000E+00  0.00000000E+00
  0.00000000E+00  0.00000000E+00  0.00000000E+00
  0.00000000E+00  0.00000000E+00  0.00000000E+00
  0.00000000E+00  0.00000000E+00  0.00000000E+00
  0.00000000E+00  0.00000000E+00  0.00000000E+00
  0.00000000E+00  0.00000000E+00  0.00000000E+00
  0.00000000E+00  0.00000000E+00  0.00000000E+00
  0.00000000E+00  0.00000000E+00  0.00000000E+00
  0.00000000E+00  0.00000000E+00  0.00000000E+00
  0.00000000E+00  0.00000000E+00  0.00000000E+00
  0.00000000E+00  0.00000000E+00  0.00000000E+00
  0.00000000E+00  0.00000000E+00  0.00000000E+00
  0.00000000E+00  0.00000000E+00  0.00000000E+00
  0.00000000E+00  0.00000000E+00  0.00000000E+00
  0.00000000E+00  0.00000000E+00  0.00000000E+00
  0.00000000E+00  0.00000000E+00  0.00000000E+00
  0.00000000E+00  0.00000000E+00  0.00000000E+00
  0.00000000E+00  0.00000000E+00  0.00000000E+00
  0.00000000E+00  0.00000000E+00  0.00000000E+00
  0.00000000E+00  0.00000000E+00  0.00000000E+00
  0.00000000E+00  0.00000000E+00  0.00000000E+00
  0.00000000E+00  0.00000000E+00  0.00000000E+00
  0.00000000E+00  0.00000000E+00  0.00000000E+00
  0.00000000E+00  0.00000000E+00  0.00000000E+00
  0.00000000E+00  0.00000000E+00  0.00000000E+00
  0.00000000E+00  0.00000000E+00  0.00000000E+00
  0.00000000E+00  0.00000000E+00  0.00000000E+00
  0.00000000E+00  0.00000000E+00  0.00000000E+00
  0.00000000E+00  0.00000000E+00  0.00000000E+00
  0.00000000E+00  0.00000000E+00  0.00000000E+00
  0.00000000E+00  0.00000000E+00  0.00000000E+00
  0.00000000E+00  0.00000000E+00  0.00000000E+00
  0.00000000E+00  0.00000000E+00  0.00000000E+00
  0.00000000E+00  0.00000000E+00  0.00000000E+00
  0.00000000E+00  0.00000000E+00  0.00000000E+00
  0.00000000E+00  0.00000000E+00  0.00000000E+00
  0.00000000E+00  0.00000000E+00  0.00000000E+00
  0.00000000E+00  0.00000000E+00  0.00000000E+00
  0.00000000E+00  0.00000000E+00  0.00000000E+00
  0.00000000E+00  0.00000000E+00  0.00000000E+00
  0.00000000E+00  0.00000000E+00  0.00000000E+00
  0.00000000E+00  0.00000000E+00  0.00000000E+00
  0.00000000E+00  0.00000000E+00  0.00000000E+00
  0.00000000E+00  0.00000000E+00  0.00000000E+00
  0.00000000E+00  0.00000000E+00  0.00000000E+00
  0.00000000E+00  0.00000000E+00  0.00000000E+00
  0.00000000E+00  0.00000000E+00  0.00000000E+00
  0.00000000E+00  0.00000000E+00  0.00000000E+00
  0.00000000E+00  0.00000000E+00  0.00000000E+00
  0.00000000E+00  0.00000000E+00  0.00000000E+00
  0.00000000E+00  0.00000000E+00  0.00000000E+00
  0.00000000E+00  0.00000000E+00  0.00000000E+00
  0.00000000E+00  0.00000000E+00  0.00000000E+00
  0.00000000E+00  0.00000000E+00  0.00000000E+00
  0.00000000E+00  0.00000000E+00  0.00000000E+00
