ortho_FA0000MA1000Cs0000                
   1.00000000000000     
    10.9572095551325557    0.0486837307575865    0.1950527487575059
     0.0454142232337590    9.6116571812188258    0.1131617953091747
     0.3265029410037639    0.2093114615810052   18.8881890570942446
   Pb   I    Cs   C    N    H 
     8    24     0     8     8    48
Direct
  0.1621004432900594  0.1228647769346517  0.4377708274048636
  0.1593011661518970  0.6221159170467890  0.4426416283001244
  0.8417430116357058  0.3693253222131188  0.5603267765547867
  0.8433291634153075  0.8645042744596334  0.5656994447231390
  0.3342332809268123  0.3853735027533247  0.9370282124027208
  0.3432732415030730  0.8904226303416262  0.9365787003013687
  0.6527620194528716  0.1417094737972609  0.0601219967360400
  0.6493517021215948  0.6379385755922623  0.0600183635624163
  0.1718348230320445  0.1387126282932533  0.0063629976800207
  0.1776414555767419  0.6427760839804798  0.0071068701577628
  0.8321497613102803  0.3983001801544883  0.0015172635021579
  0.8284952771293734  0.8892259276609361  0.0119790663633041
  0.3265111468541602  0.3667504870440612  0.5030179543964797
  0.3260430994406131  0.8672537177883363  0.5060385949781498
  0.6634555170579789  0.1174103716646219  0.5205865074594095
  0.6602007840484099  0.6221106812596937  0.5204175010176584
  0.3120860782324575  0.1338602768280666  0.2936779937931120
  0.3096152902798466  0.6303440439243596  0.2983600460251621
  0.7251867852286750  0.3663641647204521  0.7117315387524221
  0.7414813849513500  0.8605683312765373  0.7213915744386405
  0.1944057914644473  0.3821289606627226  0.7932684787768780
  0.2187424079589073  0.8969071143468020  0.7913839602904345
  0.7749987560936026  0.1185385562323989  0.2109546376695242
  0.7749063043242610  0.6155481078035308  0.2106770956487677
  0.0353757705028318  0.1168251456729065  0.6007876242439492
  0.0334026724055912  0.6104575635552498  0.6085772002326840
  0.9771065658815469  0.3751481495217114  0.3944358167106552
  0.9740541735312018  0.8736955559586133  0.3983649887910110
  0.4577468291069994  0.3868134540452299  0.1019376210444955
  0.4626052862122543  0.8937515690123078  0.1031099658545389
  0.5373083795999090  0.1451408804432944  0.8993169908497756
  0.5367591241056977  0.6394786360590671  0.8991708966897652
  0.4397504010884223  0.6266668405541032  0.7118988303987441
  0.1069828522958369  0.9143457867656165  0.1920020177941545
  0.6071253056523621  0.3584267965908488  0.3575509762051108
  0.4479072164946137  0.1348936071548913  0.7099951038113842
  0.9570481074297773  0.6765254383804639  0.8547812269500151
  0.9344787550184152  0.1178922614740096  0.8592250299115165
  0.6084789742228442  0.8684859561748351  0.3573631017291514
  0.1070493404500660  0.4183935839823663  0.1884427823887705
  0.3922730365891795  0.6091821394044725  0.6397954888256622
  0.0281252361752593  0.8234182494345356  0.1507057779144390
  0.5530407333396415  0.3848569297342501  0.2875249174305521
  0.3980621631278035  0.1165984258169954  0.6385261899927316
  0.8947097637738207  0.5806276898935838  0.8076505288567395
  0.9345163394126078  0.1258147058409749  0.7807706708654051
  0.5488547835437968  0.8812792052290107  0.2881508704359375
  0.0261232014518811  0.3265159630294391  0.1489202458209624
  0.3514180066225139  0.6993091156818799  0.6197356969217809
  0.3275522132455446  0.5316905718457442  0.6386927310118710
  0.4628984657455946  0.5854784445813682  0.6032846187769966
  0.3641181272821613  0.6572751216959312  0.7477327894831319
  0.4801231952019204  0.5278116902284059  0.7295055067257827
  0.5103011437939845  0.7068944380008291  0.7089918370045258
  0.9689503253406258  0.8792035434607577  0.1180891093235687
  0.9714510153325806  0.7595860880118934  0.1825967599156712
  0.0797286244883905  0.7603052245486801  0.1164478744871615
  0.0486857684611413  0.9773810151162244  0.2271868390388903
  0.1684460864851134  0.8490415917013621  0.2233337038977680
  0.1606659160157766  0.9804022701959382  0.1547965156131430
  0.4813690519106543  0.4578514639320063  0.2910554348679829
  0.5152387307876806  0.2954350560672864  0.2682018942290149
  0.6181031734752758  0.4237646895699593  0.2509045672062856
  0.5357885762497897  0.3195963306337588  0.3947583941061230
  0.6810812936237957  0.2817640262240289  0.3514505430916515
  0.6433174192280617  0.4561283006044435  0.3765500666934543
  0.3360276272107304  0.1939168332607362  0.6249137541200167
  0.3536536921268527  0.0227622094480288  0.6342247951649279
  0.4683284846132875  0.1193529503346547  0.5994241358710936
  0.3741595942185605  0.1201054066203177  0.7498396098115637
  0.5205643709218888  0.0574148271904920  0.7176587794218973
  0.4863407555149940  0.2391884085945487  0.7122816306672839
  0.8211415584226734  0.6299395515119718  0.7834904684761336
  0.8622698740878422  0.4935934368978890  0.8349887302292686
  0.9531273011105507  0.5465145261482390  0.7672042849913948
  0.9001631113559543  0.6908703017572195  0.9028457698507365
  0.0456944645504151  0.6315490156223138  0.8678818519202669
  0.9702807348450656  0.7757549738056498  0.8261817015390681
  0.8738245529506632  0.2026423217358294  0.7621683446760640
  0.9046062535855199  0.0331918551896751  0.7596809041523352
  0.0206622769732067  0.1480211642487565  0.7595001000488846
  0.8445067486651028  0.0840619377788852  0.8794857691053840
  0.0052598805235006  0.0434938949877855  0.8751394311687011
  0.9558519218490773  0.2202954735198815  0.8794484691319576
  0.4874329648272722  0.9655673188921817  0.2871387743744224
  0.4962553618395345  0.7940364552367593  0.2789841910503235
  0.6123730599594436  0.8953438121504664  0.2467301767633701
  0.5375763069957359  0.8572469012156424  0.3994331288898750
  0.6689919151563702  0.7772500645162996  0.3568826919404774
  0.6618544136219806  0.9623064721281805  0.3652469424811606
  0.9668949044927916  0.3818053814603841  0.1163645633646810
  0.9700068759223558  0.2639932445757019  0.1819764787463010
  0.0765732225835118  0.2616098034769943  0.1149451666205142
  0.0509800851056641  0.4774084953365272  0.2265449848610987
  0.1737530526732513  0.3541305449182293  0.2165009474828636
  0.1547425115434765  0.4881874233240215  0.1502422003622838
 
  0.00000000E+00  0.00000000E+00  0.00000000E+00
  0.00000000E+00  0.00000000E+00  0.00000000E+00
  0.00000000E+00  0.00000000E+00  0.00000000E+00
  0.00000000E+00  0.00000000E+00  0.00000000E+00
  0.00000000E+00  0.00000000E+00  0.00000000E+00
  0.00000000E+00  0.00000000E+00  0.00000000E+00
  0.00000000E+00  0.00000000E+00  0.00000000E+00
  0.00000000E+00  0.00000000E+00  0.00000000E+00
  0.00000000E+00  0.00000000E+00  0.00000000E+00
  0.00000000E+00  0.00000000E+00  0.00000000E+00
  0.00000000E+00  0.00000000E+00  0.00000000E+00
  0.00000000E+00  0.00000000E+00  0.00000000E+00
  0.00000000E+00  0.00000000E+00  0.00000000E+00
  0.00000000E+00  0.00000000E+00  0.00000000E+00
  0.00000000E+00  0.00000000E+00  0.00000000E+00
  0.00000000E+00  0.00000000E+00  0.00000000E+00
  0.00000000E+00  0.00000000E+00  0.00000000E+00
  0.00000000E+00  0.00000000E+00  0.00000000E+00
  0.00000000E+00  0.00000000E+00  0.00000000E+00
  0.00000000E+00  0.00000000E+00  0.00000000E+00
  0.00000000E+00  0.00000000E+00  0.00000000E+00
  0.00000000E+00  0.00000000E+00  0.00000000E+00
  0.00000000E+00  0.00000000E+00  0.00000000E+00
  0.00000000E+00  0.00000000E+00  0.00000000E+00
  0.00000000E+00  0.00000000E+00  0.00000000E+00
  0.00000000E+00  0.00000000E+00  0.00000000E+00
  0.00000000E+00  0.00000000E+00  0.00000000E+00
  0.00000000E+00  0.00000000E+00  0.00000000E+00
  0.00000000E+00  0.00000000E+00  0.00000000E+00
  0.00000000E+00  0.00000000E+00  0.00000000E+00
  0.00000000E+00  0.00000000E+00  0.00000000E+00
  0.00000000E+00  0.00000000E+00  0.00000000E+00
  0.00000000E+00  0.00000000E+00  0.00000000E+00
  0.00000000E+00  0.00000000E+00  0.00000000E+00
  0.00000000E+00  0.00000000E+00  0.00000000E+00
  0.00000000E+00  0.00000000E+00  0.00000000E+00
  0.00000000E+00  0.00000000E+00  0.00000000E+00
  0.00000000E+00  0.00000000E+00  0.00000000E+00
  0.00000000E+00  0.00000000E+00  0.00000000E+00
  0.00000000E+00  0.00000000E+00  0.00000000E+00
  0.00000000E+00  0.00000000E+00  0.00000000E+00
  0.00000000E+00  0.00000000E+00  0.00000000E+00
  0.00000000E+00  0.00000000E+00  0.00000000E+00
  0.00000000E+00  0.00000000E+00  0.00000000E+00
  0.00000000E+00  0.00000000E+00  0.00000000E+00
  0.00000000E+00  0.00000000E+00  0.00000000E+00
  0.00000000E+00  0.00000000E+00  0.00000000E+00
  0.00000000E+00  0.00000000E+00  0.00000000E+00
  0.00000000E+00  0.00000000E+00  0.00000000E+00
  0.00000000E+00  0.00000000E+00  0.00000000E+00
  0.00000000E+00  0.00000000E+00  0.00000000E+00
  0.00000000E+00  0.00000000E+00  0.00000000E+00
  0.00000000E+00  0.00000000E+00  0.00000000E+00
  0.00000000E+00  0.00000000E+00  0.00000000E+00
  0.00000000E+00  0.00000000E+00  0.00000000E+00
  0.00000000E+00  0.00000000E+00  0.00000000E+00
  0.00000000E+00  0.00000000E+00  0.00000000E+00
  0.00000000E+00  0.00000000E+00  0.00000000E+00
  0.00000000E+00  0.00000000E+00  0.00000000E+00
  0.00000000E+00  0.00000000E+00  0.00000000E+00
  0.00000000E+00  0.00000000E+00  0.00000000E+00
  0.00000000E+00  0.00000000E+00  0.00000000E+00
  0.00000000E+00  0.00000000E+00  0.00000000E+00
  0.00000000E+00  0.00000000E+00  0.00000000E+00
  0.00000000E+00  0.00000000E+00  0.00000000E+00
  0.00000000E+00  0.00000000E+00  0.00000000E+00
  0.00000000E+00  0.00000000E+00  0.00000000E+00
  0.00000000E+00  0.00000000E+00  0.00000000E+00
  0.00000000E+00  0.00000000E+00  0.00000000E+00
  0.00000000E+00  0.00000000E+00  0.00000000E+00
  0.00000000E+00  0.00000000E+00  0.00000000E+00
  0.00000000E+00  0.00000000E+00  0.00000000E+00
  0.00000000E+00  0.00000000E+00  0.00000000E+00
  0.00000000E+00  0.00000000E+00  0.00000000E+00
  0.00000000E+00  0.00000000E+00  0.00000000E+00
  0.00000000E+00  0.00000000E+00  0.00000000E+00
  0.00000000E+00  0.00000000E+00  0.00000000E+00
  0.00000000E+00  0.00000000E+00  0.00000000E+00
  0.00000000E+00  0.00000000E+00  0.00000000E+00
  0.00000000E+00  0.00000000E+00  0.00000000E+00
  0.00000000E+00  0.00000000E+00  0.00000000E+00
  0.00000000E+00  0.00000000E+00  0.00000000E+00
  0.00000000E+00  0.00000000E+00  0.00000000E+00
  0.00000000E+00  0.00000000E+00  0.00000000E+00
  0.00000000E+00  0.00000000E+00  0.00000000E+00
  0.00000000E+00  0.00000000E+00  0.00000000E+00
  0.00000000E+00  0.00000000E+00  0.00000000E+00
  0.00000000E+00  0.00000000E+00  0.00000000E+00
  0.00000000E+00  0.00000000E+00  0.00000000E+00
  0.00000000E+00  0.00000000E+00  0.00000000E+00
  0.00000000E+00  0.00000000E+00  0.00000000E+00
  0.00000000E+00  0.00000000E+00  0.00000000E+00
  0.00000000E+00  0.00000000E+00  0.00000000E+00
  0.00000000E+00  0.00000000E+00  0.00000000E+00
  0.00000000E+00  0.00000000E+00  0.00000000E+00
  0.00000000E+00  0.00000000E+00  0.00000000E+00
