cubic_FA0125MA0500Cs0375                
   1.00000000000000     
    12.6850655300604505   -0.1567286568243467    0.1391369515690134
    -0.1558245577606448   12.6179394570535486   -0.0644432965815625
     0.1373486807700971   -0.0650216721193507   12.7855034873674693
   Cs   I    Pb   C    N    H 
     3    24     8     5     6    29
Direct
  0.2588425074974445  0.2503793031728488  0.2590994452641664
  0.2539394189544616  0.7454458253092220  0.7484726573434837
  0.7546625715016035  0.2443066275510015  0.2385121340773071
  0.0001594437466407  0.0403782119300492  0.2545369900099911
  0.0394466814607406  0.9796760211648450  0.7538275555482908
  0.0329218277873467  0.4705478753757226  0.2559451542102234
  0.0179105569023855  0.5169675809358689  0.7569187797523383
  0.5161244567320257  0.9986494429989192  0.2476555746909362
  0.5100917183482989  0.0222654896873369  0.7481828166085490
  0.4894908767377405  0.5112710461774658  0.2523215966971358
  0.5437293179479739  0.4817878090109503  0.7503470811940377
  0.0569871602821032  0.2502707892607543  0.9937060826570829
 -0.0241405823139691  0.2477935727643045  0.5272011472976836
  0.9668075737649182  0.7484299753330236  0.0312824428218306
  0.0570579759261969  0.7489194151541786  0.4705535964344317
  0.4674033794520030  0.2546238261215679  0.0251411203097703
  0.5420123279606288  0.2532973891097076  0.4693195741835322
  0.5278411560961882  0.7568714305562684  0.9645199658186149
  0.4854534444562207  0.7527505150884081  0.5201746709018279
  0.2655888888578669  0.4691278833344367  0.5286295842788113
  0.2583994046309745  0.5507063890264138 -0.0022815384752845
  0.2603480751345086  0.0426482768758428  0.4937786239213342
  0.2523427051521314  0.9523919130623421  0.0194053416129062
  0.7680000730096196  0.5275314379408541  0.5024964106897897
  0.7575969494225825  0.4708060488321906  0.0320428944506746
  0.7585401287833581 -0.0243001157832532  0.5203394898583826
  0.7555111239269952  0.0374568668116709  0.9964998075501830
  0.5031588854153179  0.0073729982622185  0.9976083083885973
  0.5064049217271728  0.0035842186466357  0.4966160891486956
  0.5113902071819446  0.5025930440096249  0.0032254040667727
  0.5121919726238621  0.5011242939316806  0.4968152356064516
  0.0044219268425438  0.0005225035337800  0.0051857273597935
  0.0094201705123691  0.9949277218461542  0.4988326865208718
  0.0083005981066257  0.4965793454262645  0.0035808213399927
  0.0170199384549120  0.4993273531716015  0.5037961696384188
  0.7384921982167969  0.7517912489515445  0.2726608814827355
  0.7895734326850192  0.7500166746842535  0.7573750106549989
  0.2860959703753281  0.2528843672888609  0.7540414550564410
  0.7786737590468944  0.2672056465256894  0.7793180920810524
  0.2946965551529439  0.7571960847736906  0.2788568783512415
  0.8215900225301285  0.6919728701097012  0.2787425545452304
  0.7113414803052074  0.8010496869845255  0.1879191386134503
  0.6765346515854577  0.7422853326869481  0.7278160940294179
  0.1709128894193676  0.2434418741536199  0.7329700639871041
  0.7124661608398262  0.2261849562781006  0.6919010845333651
  0.2048579918875351  0.7407596185880441  0.2065710328253371
  0.6889447582596635  0.7609740129711801  0.3431730006190747
  0.8337727417558985  0.6512388681705743  0.3463605174243811
  0.8718093358387550  0.6814797485186737  0.2156342065673003
  0.7546036328135486  0.7960052514062554  0.1196437297861049
  0.6481178628546712  0.8501714684662417  0.1909131043027077
  0.6640241205674092  0.7679843424360200  0.6523839098265700
  0.6295792809354638  0.7863995159415533  0.7790629070949979
  0.6467210588768318  0.6642863393163361  0.7326545874853726
  0.8193309403056892  0.8310720200941536  0.7432900660500540
  0.7951290375585723  0.7307966422091406  0.8404729938777474
  0.8342044938783711  0.6932581321039784  0.7096675768607520
  0.1537790922439087  0.2601226612112997  0.6558516578340731
  0.1280775056222633  0.2948731394825734  0.7804237839025433
  0.1406070622756843  0.1670698055627876  0.7477539669481396
  0.3147487348842815  0.3320592523628388  0.7305478003828378
  0.2978547823404883  0.2413278076689806  0.8378297765612159
  0.3269172756625963  0.1919620093806432  0.7080656815225230
  0.6706685449069091  0.2859761197314936  0.6578867510298503
  0.6568426302612562  0.1687764227565105  0.7171882731010276
  0.7580797698901947  0.1912126042637960  0.6331975553357456
  0.7271809622633374  0.3046365925841543  0.8383007500557395
  0.8188560446123122  0.2003977641390032  0.8137657285559646
  0.8361359066555694  0.3256350417589237  0.7479094252083022
  0.1990363116643481  0.8053560366140026  0.1566688938977259
  0.1345026799935083  0.7307507541426255  0.2484547663396905
  0.2154226774992862  0.6743620072789532  0.1581317030372875
  0.2794352012476441  0.8271228536929025  0.3281426487145496
  0.3008671900658471  0.6867865136594815  0.3276193644480115
  0.3672470715508288  0.7695689352711766  0.2319554524214635
 
  0.00000000E+00  0.00000000E+00  0.00000000E+00
  0.00000000E+00  0.00000000E+00  0.00000000E+00
  0.00000000E+00  0.00000000E+00  0.00000000E+00
  0.00000000E+00  0.00000000E+00  0.00000000E+00
  0.00000000E+00  0.00000000E+00  0.00000000E+00
  0.00000000E+00  0.00000000E+00  0.00000000E+00
  0.00000000E+00  0.00000000E+00  0.00000000E+00
  0.00000000E+00  0.00000000E+00  0.00000000E+00
  0.00000000E+00  0.00000000E+00  0.00000000E+00
  0.00000000E+00  0.00000000E+00  0.00000000E+00
  0.00000000E+00  0.00000000E+00  0.00000000E+00
  0.00000000E+00  0.00000000E+00  0.00000000E+00
  0.00000000E+00  0.00000000E+00  0.00000000E+00
  0.00000000E+00  0.00000000E+00  0.00000000E+00
  0.00000000E+00  0.00000000E+00  0.00000000E+00
  0.00000000E+00  0.00000000E+00  0.00000000E+00
  0.00000000E+00  0.00000000E+00  0.00000000E+00
  0.00000000E+00  0.00000000E+00  0.00000000E+00
  0.00000000E+00  0.00000000E+00  0.00000000E+00
  0.00000000E+00  0.00000000E+00  0.00000000E+00
  0.00000000E+00  0.00000000E+00  0.00000000E+00
  0.00000000E+00  0.00000000E+00  0.00000000E+00
  0.00000000E+00  0.00000000E+00  0.00000000E+00
  0.00000000E+00  0.00000000E+00  0.00000000E+00
  0.00000000E+00  0.00000000E+00  0.00000000E+00
  0.00000000E+00  0.00000000E+00  0.00000000E+00
  0.00000000E+00  0.00000000E+00  0.00000000E+00
  0.00000000E+00  0.00000000E+00  0.00000000E+00
  0.00000000E+00  0.00000000E+00  0.00000000E+00
  0.00000000E+00  0.00000000E+00  0.00000000E+00
  0.00000000E+00  0.00000000E+00  0.00000000E+00
  0.00000000E+00  0.00000000E+00  0.00000000E+00
  0.00000000E+00  0.00000000E+00  0.00000000E+00
  0.00000000E+00  0.00000000E+00  0.00000000E+00
  0.00000000E+00  0.00000000E+00  0.00000000E+00
  0.00000000E+00  0.00000000E+00  0.00000000E+00
  0.00000000E+00  0.00000000E+00  0.00000000E+00
  0.00000000E+00  0.00000000E+00  0.00000000E+00
  0.00000000E+00  0.00000000E+00  0.00000000E+00
  0.00000000E+00  0.00000000E+00  0.00000000E+00
  0.00000000E+00  0.00000000E+00  0.00000000E+00
  0.00000000E+00  0.00000000E+00  0.00000000E+00
  0.00000000E+00  0.00000000E+00  0.00000000E+00
  0.00000000E+00  0.00000000E+00  0.00000000E+00
  0.00000000E+00  0.00000000E+00  0.00000000E+00
  0.00000000E+00  0.00000000E+00  0.00000000E+00
  0.00000000E+00  0.00000000E+00  0.00000000E+00
  0.00000000E+00  0.00000000E+00  0.00000000E+00
  0.00000000E+00  0.00000000E+00  0.00000000E+00
  0.00000000E+00  0.00000000E+00  0.00000000E+00
  0.00000000E+00  0.00000000E+00  0.00000000E+00
  0.00000000E+00  0.00000000E+00  0.00000000E+00
  0.00000000E+00  0.00000000E+00  0.00000000E+00
  0.00000000E+00  0.00000000E+00  0.00000000E+00
  0.00000000E+00  0.00000000E+00  0.00000000E+00
  0.00000000E+00  0.00000000E+00  0.00000000E+00
  0.00000000E+00  0.00000000E+00  0.00000000E+00
  0.00000000E+00  0.00000000E+00  0.00000000E+00
  0.00000000E+00  0.00000000E+00  0.00000000E+00
  0.00000000E+00  0.00000000E+00  0.00000000E+00
  0.00000000E+00  0.00000000E+00  0.00000000E+00
  0.00000000E+00  0.00000000E+00  0.00000000E+00
  0.00000000E+00  0.00000000E+00  0.00000000E+00
  0.00000000E+00  0.00000000E+00  0.00000000E+00
  0.00000000E+00  0.00000000E+00  0.00000000E+00
  0.00000000E+00  0.00000000E+00  0.00000000E+00
  0.00000000E+00  0.00000000E+00  0.00000000E+00
  0.00000000E+00  0.00000000E+00  0.00000000E+00
  0.00000000E+00  0.00000000E+00  0.00000000E+00
  0.00000000E+00  0.00000000E+00  0.00000000E+00
  0.00000000E+00  0.00000000E+00  0.00000000E+00
  0.00000000E+00  0.00000000E+00  0.00000000E+00
  0.00000000E+00  0.00000000E+00  0.00000000E+00
  0.00000000E+00  0.00000000E+00  0.00000000E+00
  0.00000000E+00  0.00000000E+00  0.00000000E+00
