cubic_FA0625MA0250Cs0125                
   1.00000000000000     
    12.7302680882901580   -0.1967193276989087    0.2025086420945988
    -0.1978936943119417   12.7359422824618456   -0.1434604955815725
     0.2029843641555488   -0.1434409461297650   12.7274996965064116
   Cs   I    Pb   C    N    H 
     1    24     8     7    12    37
Direct
  0.7577029376174503  0.7463321260462075  0.2366296439833346
  0.9932325051770495  0.9804473466191561  0.2397047935947352
  0.0166013854040335  0.0108726429829605  0.7393753805070513
  0.0369332463318430  0.4864169460810088  0.2438829817639359
  0.0132888022801685  0.5113128027026872  0.7442220627497454
  0.5023989845501108  0.9779487955002609  0.2494229183648282
  0.4968522518879289  0.9831363415912729  0.7487418906512995
  0.4920911160269560  0.4985551903590490  0.2551333106666619
  0.5092597215732922  0.4772856525745199  0.7540392540468576
  0.9973357920058563  0.2510860748191394  0.9820626844943793
  0.9826193738526471  0.2579903874275499  0.5230048116948026
  0.9900444349595640  0.7506826323050809  0.9850863116742548
  0.0071455654969130  0.7578697498233822  0.4976223379758815
  0.5103001453305650  0.2403129457234768  0.0167287885743554
  0.5326177297860794  0.2484511330344214  0.4866829224156149
  0.5374218174878449  0.7407876394217204  0.0009357485483731
  0.5097615080625126  0.7483742215386293  0.5023096335247913
  0.2651011898502897  0.4616425676439962  0.5118510311336192
  0.2593157596442074  0.5121135429705204  0.9887926989438611
  0.2577657535426321  0.0084843588875656  0.5006134593104031
  0.2503608979062340  0.9988260053856456  0.0138588935039275
  0.7652477124365253  0.5263714894447550  0.4775043322273485
  0.7567681672066552  0.4964461857416216  0.0284642416168011
  0.7560662947757549  0.0051495081717402  0.4792682868382247
  0.7508409794164307  0.0095910844452430  0.0028569475288469
  0.4999584014735206  0.9871758479214898  0.9987863039386574
  0.5086297049720209  0.9972600989931644  0.4991044847538010
  0.5064106469619843  0.4916993421732615  0.0077594635446783
  0.5147845605180345  0.5002065957576735  0.5020766041116491
  0.0011030941480651  0.9976585724281715  0.9902354098254145
  0.0060191725712806  0.0049764802029683  0.4847259338806517
  0.0062027096499685  0.4971131527238795  0.9948650586066218
  0.0156900528708062  0.5050670485995346  0.4904887851109095
  0.7304846698665621  0.2576877242388729  0.7664454666993814
  0.2494480845619092  0.2660111191520060  0.2573011575265030
  0.7374709358362457  0.7508114646208527  0.7574204060024655
  0.2470206655313577  0.7671682232595999  0.2552383369779596
  0.2545811019887472  0.7302251324753199  0.7585100646020100
  0.7877688290038464  0.2744472962481739  0.2521932286234251
  0.2667270544248266  0.2580159213294904  0.7886078754732502
  0.7972491252106710  0.1820812092953145  0.7743846871332356
  0.7355729751465013  0.3293488775040480  0.6936748917094367
  0.3289052363843291  0.2148742206376398  0.2924154852297399
  0.1911299859013480  0.2336544326688676  0.1791715226758770
  0.7770150228437425  0.6640885575518960  0.7907645151601429
  0.7720370750544100  0.8020487617894001  0.6742473896499108
  0.3024970416521937  0.7069545979896176  0.3135307496787413
  0.2136614482265818  0.7407994504425668  0.1615282231393506
  0.3555786861974166  0.7120482127861502  0.7565574657514194
  0.2149671630501550  0.8189805683672580  0.7302594847615496
  0.6864282347815627  0.2135773997229413  0.2412660800040348
  0.2240239829949012  0.2366134925062580  0.6821095297273375
  0.6655406556071188  0.2612771691383600  0.8248962156918040
  0.7888422111868123  0.1312313704363711  0.8357370131198525
  0.8615438593519577  0.1743046024543140  0.7247831769594381
  0.7927905903997804  0.3310751376471298  0.6353660216519469
  0.6784325900069121  0.3844496627569056  0.6943374521239980
  0.2303260492312017  0.3406645812834247  0.2966547557032844
  0.3714179014085659  0.2454764544227411  0.3535526701773279
  0.3528802795363961  0.1445533701640913  0.2608388406592417
  0.2053385519503757  0.1655565149045805  0.1366291930446492
  0.1306614733089757  0.2780680648234448  0.1561212388932882
  0.6705922431323108  0.7822837135324999  0.8027355969308877
  0.7484680214360919  0.6312219848323398  0.8590258159113464
  0.8421909521186698  0.6299157321471829  0.7566053873009071
  0.8345922088501303  0.7782243522698716  0.6274246328898340
  0.7362150266095020  0.8681693678077225  0.6516823748046247
  0.2266857565016642  0.8444504409584178  0.2875639969620395
  0.3323717652161702  0.7356656873072759  0.3824797631847047
  0.3304170305900061  0.6360424305007498  0.2870433180056157
  0.2292699605135923  0.6699532296662177  0.1245070738294148
  0.1694886738052157  0.7913931474237648  0.1216580307945246
  0.1998334513747696  0.6675800019950621  0.7848804340975690
  0.3820966142016724  0.6402140160868826  0.7762440098601433
  0.4106145911829066  0.7674624526929161  0.7323376685520294
  0.2607720455567178  0.8802019015687574  0.7023577136183138
  0.1358331574171393  0.8301608123580394  0.7344052654154899
  0.6424580839628478  0.2394752558476344  0.1795090294413143
  0.6396812621984843  0.2192443818061997  0.3101351137585747
  0.6979483081936280  0.1345688933320335  0.2261419612305435
  0.7703315360887446  0.3558986877903738  0.2739318299451908
  0.8323077955681187  0.2394182936238465  0.3140517903210037
  0.8320380167091318  0.2713462096392146  0.1770386972525103
  0.1499302597231562  0.2668046944145366  0.6742869774979904
  0.2172469440192302  0.1567782604972918  0.6636612497280234
  0.2710621369823246  0.2716143449398103  0.6238213194619948
  0.2085819826056108  0.2308483956364058  0.8480547567880656
  0.3401931627300861  0.2163223226640704  0.7947157858155248
  0.2815260154196489  0.3428193777074955  0.7982791995649736
 
  0.00000000E+00  0.00000000E+00  0.00000000E+00
  0.00000000E+00  0.00000000E+00  0.00000000E+00
  0.00000000E+00  0.00000000E+00  0.00000000E+00
  0.00000000E+00  0.00000000E+00  0.00000000E+00
  0.00000000E+00  0.00000000E+00  0.00000000E+00
  0.00000000E+00  0.00000000E+00  0.00000000E+00
  0.00000000E+00  0.00000000E+00  0.00000000E+00
  0.00000000E+00  0.00000000E+00  0.00000000E+00
  0.00000000E+00  0.00000000E+00  0.00000000E+00
  0.00000000E+00  0.00000000E+00  0.00000000E+00
  0.00000000E+00  0.00000000E+00  0.00000000E+00
  0.00000000E+00  0.00000000E+00  0.00000000E+00
  0.00000000E+00  0.00000000E+00  0.00000000E+00
  0.00000000E+00  0.00000000E+00  0.00000000E+00
  0.00000000E+00  0.00000000E+00  0.00000000E+00
  0.00000000E+00  0.00000000E+00  0.00000000E+00
  0.00000000E+00  0.00000000E+00  0.00000000E+00
  0.00000000E+00  0.00000000E+00  0.00000000E+00
  0.00000000E+00  0.00000000E+00  0.00000000E+00
  0.00000000E+00  0.00000000E+00  0.00000000E+00
  0.00000000E+00  0.00000000E+00  0.00000000E+00
  0.00000000E+00  0.00000000E+00  0.00000000E+00
  0.00000000E+00  0.00000000E+00  0.00000000E+00
  0.00000000E+00  0.00000000E+00  0.00000000E+00
  0.00000000E+00  0.00000000E+00  0.00000000E+00
  0.00000000E+00  0.00000000E+00  0.00000000E+00
  0.00000000E+00  0.00000000E+00  0.00000000E+00
  0.00000000E+00  0.00000000E+00  0.00000000E+00
  0.00000000E+00  0.00000000E+00  0.00000000E+00
  0.00000000E+00  0.00000000E+00  0.00000000E+00
  0.00000000E+00  0.00000000E+00  0.00000000E+00
  0.00000000E+00  0.00000000E+00  0.00000000E+00
  0.00000000E+00  0.00000000E+00  0.00000000E+00
  0.00000000E+00  0.00000000E+00  0.00000000E+00
  0.00000000E+00  0.00000000E+00  0.00000000E+00
  0.00000000E+00  0.00000000E+00  0.00000000E+00
  0.00000000E+00  0.00000000E+00  0.00000000E+00
  0.00000000E+00  0.00000000E+00  0.00000000E+00
  0.00000000E+00  0.00000000E+00  0.00000000E+00
  0.00000000E+00  0.00000000E+00  0.00000000E+00
  0.00000000E+00  0.00000000E+00  0.00000000E+00
  0.00000000E+00  0.00000000E+00  0.00000000E+00
  0.00000000E+00  0.00000000E+00  0.00000000E+00
  0.00000000E+00  0.00000000E+00  0.00000000E+00
  0.00000000E+00  0.00000000E+00  0.00000000E+00
  0.00000000E+00  0.00000000E+00  0.00000000E+00
  0.00000000E+00  0.00000000E+00  0.00000000E+00
  0.00000000E+00  0.00000000E+00  0.00000000E+00
  0.00000000E+00  0.00000000E+00  0.00000000E+00
  0.00000000E+00  0.00000000E+00  0.00000000E+00
  0.00000000E+00  0.00000000E+00  0.00000000E+00
  0.00000000E+00  0.00000000E+00  0.00000000E+00
  0.00000000E+00  0.00000000E+00  0.00000000E+00
  0.00000000E+00  0.00000000E+00  0.00000000E+00
  0.00000000E+00  0.00000000E+00  0.00000000E+00
  0.00000000E+00  0.00000000E+00  0.00000000E+00
  0.00000000E+00  0.00000000E+00  0.00000000E+00
  0.00000000E+00  0.00000000E+00  0.00000000E+00
  0.00000000E+00  0.00000000E+00  0.00000000E+00
  0.00000000E+00  0.00000000E+00  0.00000000E+00
  0.00000000E+00  0.00000000E+00  0.00000000E+00
  0.00000000E+00  0.00000000E+00  0.00000000E+00
  0.00000000E+00  0.00000000E+00  0.00000000E+00
  0.00000000E+00  0.00000000E+00  0.00000000E+00
  0.00000000E+00  0.00000000E+00  0.00000000E+00
  0.00000000E+00  0.00000000E+00  0.00000000E+00
  0.00000000E+00  0.00000000E+00  0.00000000E+00
  0.00000000E+00  0.00000000E+00  0.00000000E+00
  0.00000000E+00  0.00000000E+00  0.00000000E+00
  0.00000000E+00  0.00000000E+00  0.00000000E+00
  0.00000000E+00  0.00000000E+00  0.00000000E+00
  0.00000000E+00  0.00000000E+00  0.00000000E+00
  0.00000000E+00  0.00000000E+00  0.00000000E+00
  0.00000000E+00  0.00000000E+00  0.00000000E+00
  0.00000000E+00  0.00000000E+00  0.00000000E+00
  0.00000000E+00  0.00000000E+00  0.00000000E+00
  0.00000000E+00  0.00000000E+00  0.00000000E+00
  0.00000000E+00  0.00000000E+00  0.00000000E+00
  0.00000000E+00  0.00000000E+00  0.00000000E+00
  0.00000000E+00  0.00000000E+00  0.00000000E+00
  0.00000000E+00  0.00000000E+00  0.00000000E+00
  0.00000000E+00  0.00000000E+00  0.00000000E+00
  0.00000000E+00  0.00000000E+00  0.00000000E+00
  0.00000000E+00  0.00000000E+00  0.00000000E+00
  0.00000000E+00  0.00000000E+00  0.00000000E+00
  0.00000000E+00  0.00000000E+00  0.00000000E+00
  0.00000000E+00  0.00000000E+00  0.00000000E+00
  0.00000000E+00  0.00000000E+00  0.00000000E+00
  0.00000000E+00  0.00000000E+00  0.00000000E+00
