hexa_FA0250MA0375Cs0375                 
   1.00000000000000     
    17.8606333424608152    0.1097012767969299   -0.0486835359220284
    -8.8488425290413151   14.8160068065468717    0.0131330373818165
    -0.0204150584966473   -0.0056567269716756    7.8064159009022234
   Pb   I    N    C    H    Cs
     8    24     7     5    28     3
Direct
  0.5018465211491135  0.4965715223541664  0.9386027141976582
  0.5118037190726208  0.9975707125173583  0.9354781097721858
  0.0057306188792491  0.5083598741628679  0.9364795974895049
  0.9945963420168669  0.9997969155185573  0.9352827394487140
  0.9941371023989298  0.0029469443787344  0.4401992653401794
  0.0055664782464495  0.5043659787268341  0.4398901492414217
  0.5120301725825166  0.9927062288195411  0.4339526388547014
  0.4980815784957587  0.4945003550910145  0.4351285653396399
  0.4280055316834371  0.0796732998923295  0.1904293889634104
  0.4128124371798095  0.5746293403636673  0.1814335708808915
  0.9112473148104766  0.0875954280587156  0.1767525535366211
  0.9204488929880443  0.5927619452290085  0.2044360055408598
  0.4247559358935546  0.3212260469128850  0.1817691081461370
  0.4351566948595398  0.8229130181920330  0.1723746172293946
  0.9215900223727991  0.3313437721990589  0.1702517308874634
  0.8971423408670725  0.8291488431675296  0.1961534928737044
  0.1620340775419702  0.0882239605566309  0.1902403334865734
  0.1758405986892524  0.5857186781040881  0.1887780144687291
  0.6790899439478328  0.0814009277488392  0.1860670885491875
  0.6679229795433189  0.5825953655636585  0.1933933725220158
  0.0912617986963699  0.4229261068078001  0.7009241117301243
  0.0856781381568050  0.9240752456421319  0.6821254214040230
  0.5842015059561894  0.4049107603696260  0.6829580313016111
  0.5928028679708440  0.9065046297697914  0.6937111719672832
  0.0770467894605285  0.1777179024438179  0.6948162246651816
  0.1010223115141199  0.6785849820737551  0.6775709162153967
  0.6079305875866641  0.1729956499469277  0.6661932831523274
  0.6069321904294749  0.6664154564757415  0.6814423171970334
  0.3326756083182066  0.4192068266288373  0.6911131940997030
  0.3456449261299047  0.9166717769001890  0.6824544302795627
  0.8377268608578852  0.4269382574415677  0.6839216565007774
  0.8269824960513937  0.9148025746727444  0.6878893333373935
  0.2264923640074859  0.8215025864200518  0.1871733121058131
  0.0980435539474711  0.8253326684702451  0.1907319369330941
  0.2775786487556475  0.1802299341246677  0.6886293759298147
  0.4033714070354958  0.1712565948431851  0.6888814911656381
  0.7902496579357117  0.1503698691974358  0.7755694324937242
  0.6278714083613223  0.3279551057962966  0.2678486768949482
  0.7920594726123649  0.6189965141592393  0.6126899865605352
  0.1829479989997897  0.8641371217633428  0.1875631255596669
  0.3185757224897498  0.1351704154169301  0.6870290947298674
  0.8458274016145066  0.1556372436998872  0.6287592173622681
  0.6907040273950743  0.3532840640276545  0.1235822668737614
  0.8622783683193407  0.6842327580505441  0.7297676890332399
  0.2204958931672211  0.9378001214433273  0.1850302321832931
  0.2786651436499959  0.0616149550694236  0.6839858165585943
  0.1977345244024153  0.7525637026585384  0.1897933833240092
  0.2928421054496618  0.8572651385867465  0.1846115822996426
  0.0693631517167863  0.8637034802751036  0.1918622519070348
  0.0564977839411747  0.7566482943597438  0.1947037001186422
  0.3080761348134237  0.2492148234209551  0.6910921907177238
  0.2109508550197680  0.1464780449119624  0.6874628335383530
  0.4292726317577593  0.1303826930578879  0.6864129651517513
  0.4464793356517899  0.2394707081086597  0.6914293390862970
  0.7404951872100669  0.1619112953994917  0.7361894708239423
  0.8254186470659476  0.1965644475829901  0.8711299793432913
  0.7598084837124456  0.0872328127887334  0.8312020503282234
  0.8690065540455656  0.2197424554099212  0.5623239740771582
  0.9007831175340423  0.1507333007218579  0.6782577973938418
  0.8066855318661079  0.0993616038705616  0.5418540256220172
  0.5720740903286896  0.3298512865378762  0.2314729976953268
  0.6542686607752617  0.3706546007860080  0.3721606008427883
  0.6068045822025359  0.2634399240207824  0.3115297415829218
  0.7123144276619737  0.4227559452681931  0.0864826624804309
  0.7463291389814333  0.3475986070944548  0.1660482448437444
  0.6575779083097331  0.3076888753782748  0.0158395335120366
  0.7404702967757041  0.6310067666248537  0.6065394740173689
  0.7669752814823443  0.5530818765493872  0.6537949314221749
  0.8147203736220834  0.6222280946573321  0.4893566570140147
  0.8340214220126545  0.6806227239760515  0.8559276084969227
  0.9127560995140357  0.6661252546510432  0.7391118478365934
  0.8894008879465575  0.7520112455929046  0.6765954811150728
  0.6796509596812451  0.8396483377685097  0.1898348144570120
  0.1399694320471245  0.3156422691757815  0.1647479043559238
  0.3170413438128102  0.6639219672571817  0.6985010452219083
 
  0.00000000E+00  0.00000000E+00  0.00000000E+00
  0.00000000E+00  0.00000000E+00  0.00000000E+00
  0.00000000E+00  0.00000000E+00  0.00000000E+00
  0.00000000E+00  0.00000000E+00  0.00000000E+00
  0.00000000E+00  0.00000000E+00  0.00000000E+00
  0.00000000E+00  0.00000000E+00  0.00000000E+00
  0.00000000E+00  0.00000000E+00  0.00000000E+00
  0.00000000E+00  0.00000000E+00  0.00000000E+00
  0.00000000E+00  0.00000000E+00  0.00000000E+00
  0.00000000E+00  0.00000000E+00  0.00000000E+00
  0.00000000E+00  0.00000000E+00  0.00000000E+00
  0.00000000E+00  0.00000000E+00  0.00000000E+00
  0.00000000E+00  0.00000000E+00  0.00000000E+00
  0.00000000E+00  0.00000000E+00  0.00000000E+00
  0.00000000E+00  0.00000000E+00  0.00000000E+00
  0.00000000E+00  0.00000000E+00  0.00000000E+00
  0.00000000E+00  0.00000000E+00  0.00000000E+00
  0.00000000E+00  0.00000000E+00  0.00000000E+00
  0.00000000E+00  0.00000000E+00  0.00000000E+00
  0.00000000E+00  0.00000000E+00  0.00000000E+00
  0.00000000E+00  0.00000000E+00  0.00000000E+00
  0.00000000E+00  0.00000000E+00  0.00000000E+00
  0.00000000E+00  0.00000000E+00  0.00000000E+00
  0.00000000E+00  0.00000000E+00  0.00000000E+00
  0.00000000E+00  0.00000000E+00  0.00000000E+00
  0.00000000E+00  0.00000000E+00  0.00000000E+00
  0.00000000E+00  0.00000000E+00  0.00000000E+00
  0.00000000E+00  0.00000000E+00  0.00000000E+00
  0.00000000E+00  0.00000000E+00  0.00000000E+00
  0.00000000E+00  0.00000000E+00  0.00000000E+00
  0.00000000E+00  0.00000000E+00  0.00000000E+00
  0.00000000E+00  0.00000000E+00  0.00000000E+00
  0.00000000E+00  0.00000000E+00  0.00000000E+00
  0.00000000E+00  0.00000000E+00  0.00000000E+00
  0.00000000E+00  0.00000000E+00  0.00000000E+00
  0.00000000E+00  0.00000000E+00  0.00000000E+00
  0.00000000E+00  0.00000000E+00  0.00000000E+00
  0.00000000E+00  0.00000000E+00  0.00000000E+00
  0.00000000E+00  0.00000000E+00  0.00000000E+00
  0.00000000E+00  0.00000000E+00  0.00000000E+00
  0.00000000E+00  0.00000000E+00  0.00000000E+00
  0.00000000E+00  0.00000000E+00  0.00000000E+00
  0.00000000E+00  0.00000000E+00  0.00000000E+00
  0.00000000E+00  0.00000000E+00  0.00000000E+00
  0.00000000E+00  0.00000000E+00  0.00000000E+00
  0.00000000E+00  0.00000000E+00  0.00000000E+00
  0.00000000E+00  0.00000000E+00  0.00000000E+00
  0.00000000E+00  0.00000000E+00  0.00000000E+00
  0.00000000E+00  0.00000000E+00  0.00000000E+00
  0.00000000E+00  0.00000000E+00  0.00000000E+00
  0.00000000E+00  0.00000000E+00  0.00000000E+00
  0.00000000E+00  0.00000000E+00  0.00000000E+00
  0.00000000E+00  0.00000000E+00  0.00000000E+00
  0.00000000E+00  0.00000000E+00  0.00000000E+00
  0.00000000E+00  0.00000000E+00  0.00000000E+00
  0.00000000E+00  0.00000000E+00  0.00000000E+00
  0.00000000E+00  0.00000000E+00  0.00000000E+00
  0.00000000E+00  0.00000000E+00  0.00000000E+00
  0.00000000E+00  0.00000000E+00  0.00000000E+00
  0.00000000E+00  0.00000000E+00  0.00000000E+00
  0.00000000E+00  0.00000000E+00  0.00000000E+00
  0.00000000E+00  0.00000000E+00  0.00000000E+00
  0.00000000E+00  0.00000000E+00  0.00000000E+00
  0.00000000E+00  0.00000000E+00  0.00000000E+00
  0.00000000E+00  0.00000000E+00  0.00000000E+00
  0.00000000E+00  0.00000000E+00  0.00000000E+00
  0.00000000E+00  0.00000000E+00  0.00000000E+00
  0.00000000E+00  0.00000000E+00  0.00000000E+00
  0.00000000E+00  0.00000000E+00  0.00000000E+00
  0.00000000E+00  0.00000000E+00  0.00000000E+00
  0.00000000E+00  0.00000000E+00  0.00000000E+00
  0.00000000E+00  0.00000000E+00  0.00000000E+00
  0.00000000E+00  0.00000000E+00  0.00000000E+00
  0.00000000E+00  0.00000000E+00  0.00000000E+00
  0.00000000E+00  0.00000000E+00  0.00000000E+00
