ortho_FA0250MA0000Cs0750                
   1.00000000000000     
    11.3109758648287375   -0.0195987531705177   -0.0774881918601537
    -0.0153388378854356    9.6170189867477784    0.0176743545367194
    -0.1251431676239135    0.0338580120518041   18.2225964942861509
   Pb   I    Cs   C    N    H 
     8    24     6     2     4    10
Direct
  0.1731049887967780  0.1342398946381278  0.4307320090799916
  0.1725583033275166  0.6332111840555484  0.4309154871472959
  0.8447181739923109  0.3890984935601006  0.5483190782338851
  0.8506523077120589  0.8878898719022543  0.5467926687349269
  0.3332100969228540  0.3851892620716141  0.9446722602029592
  0.3314768116947434  0.8852662158046781  0.9440912263452393
  0.6614588827297373  0.1306793994680836  0.0593717198188819
  0.6612862003752731  0.6318601192013117  0.0582906731616495
  0.1683774254622900  0.1341271922434286  0.0110263165163548
  0.1688361648138588  0.6316873068821112  0.0112762425750721
  0.8324087101453040  0.3828577481289528 -0.0004993476226464
  0.8326305682480248  0.8838011656641613  0.9987450355797711
  0.3476017962081457  0.3834468850244368  0.4874292473940608
  0.3422400145675638  0.8793822049483065  0.4962183073926554
  0.6744564244659643  0.1360240528265534  0.4847520098816504
  0.6781557124927806  0.6414870948031732  0.4826438467119403
  0.2885477654709019  0.1297512690942530  0.2771828907346054
  0.2888661756310655  0.6318347586439198  0.2773852295946081
  0.7478313493919516  0.3922622283585649  0.7077020119026000
  0.7615995081718376  0.8850966111056917  0.7091093784860819
  0.1882151075775637  0.3951561000783225  0.7969031148258349
  0.1880501789847398  0.8992338176033967  0.7985284539660390
  0.7835009619675060  0.1290540065279535  0.2138338000153738
  0.7832917298805940  0.6305433826178515  0.2128695395548377
  0.0265446793638546  0.1417119380007856  0.5945089441458620
  0.0269617803857724  0.6357344465137429  0.5936139580973714
  0.9874144649846605  0.3822311234384249  0.3846847995549625
  0.9881721587144571  0.8822073945132581  0.3838541832365452
  0.4804208046172085  0.3811534407635996  0.1067115393031629
  0.4818389837311300  0.8804151710243889  0.1077044119295412
  0.5150793443866264  0.1340969797298041  0.8945138024755526
  0.5137575077041638  0.6347066240479743  0.8938198263523343
  0.5667636550480404  0.3814645864441487  0.3180096592485466
  0.5628060434509931  0.8812710727959491  0.3198377861253814
  0.0591585616109822  0.3797912213201928  0.1732478475889741
  0.0589910325476983  0.8800223675053269  0.1721896217295530
  0.9288528866793099  0.1423453497171086  0.8363453214996108
  0.9324687027085629  0.6383390575790977  0.8384616141384694
  0.4175367242568484  0.1146837980300180  0.6881911592683756
  0.4228504506245008  0.6018178398934136  0.6855730272774538
  0.5246536536846292  0.1077163040534875  0.6616769708713491
  0.3273920714384292  0.1762698253805355  0.6556721011594387
  0.5252169317888750  0.6417474204726674  0.6596947940145262
  0.3197088760033462  0.6535027284751284  0.6662878548912284
  0.4008196284950437  0.0661278384487170  0.7415354865690031
  0.5907277711946545  0.0557600434625055  0.6899101155585839
  0.5469424477763764  0.1468698044460541  0.6111220691935703
  0.3339159977588593  0.2277334996191273  0.6062780186447114
  0.2472333571185100  0.1763586716019961  0.6807805432394597
  0.4229023919157429  0.5195249442871985  0.7270271090777941
  0.6010303778322573  0.5913102381918933  0.6765778055863280
  0.5330359804941894  0.7145408173659581  0.6191686449027478
  0.3105529410078307  0.7295971397100651  0.6269909895448369
  0.2453469274515537  0.6158494959036560  0.6908300251707565
 
  0.00000000E+00  0.00000000E+00  0.00000000E+00
  0.00000000E+00  0.00000000E+00  0.00000000E+00
  0.00000000E+00  0.00000000E+00  0.00000000E+00
  0.00000000E+00  0.00000000E+00  0.00000000E+00
  0.00000000E+00  0.00000000E+00  0.00000000E+00
  0.00000000E+00  0.00000000E+00  0.00000000E+00
  0.00000000E+00  0.00000000E+00  0.00000000E+00
  0.00000000E+00  0.00000000E+00  0.00000000E+00
  0.00000000E+00  0.00000000E+00  0.00000000E+00
  0.00000000E+00  0.00000000E+00  0.00000000E+00
  0.00000000E+00  0.00000000E+00  0.00000000E+00
  0.00000000E+00  0.00000000E+00  0.00000000E+00
  0.00000000E+00  0.00000000E+00  0.00000000E+00
  0.00000000E+00  0.00000000E+00  0.00000000E+00
  0.00000000E+00  0.00000000E+00  0.00000000E+00
  0.00000000E+00  0.00000000E+00  0.00000000E+00
  0.00000000E+00  0.00000000E+00  0.00000000E+00
  0.00000000E+00  0.00000000E+00  0.00000000E+00
  0.00000000E+00  0.00000000E+00  0.00000000E+00
  0.00000000E+00  0.00000000E+00  0.00000000E+00
  0.00000000E+00  0.00000000E+00  0.00000000E+00
  0.00000000E+00  0.00000000E+00  0.00000000E+00
  0.00000000E+00  0.00000000E+00  0.00000000E+00
  0.00000000E+00  0.00000000E+00  0.00000000E+00
  0.00000000E+00  0.00000000E+00  0.00000000E+00
  0.00000000E+00  0.00000000E+00  0.00000000E+00
  0.00000000E+00  0.00000000E+00  0.00000000E+00
  0.00000000E+00  0.00000000E+00  0.00000000E+00
  0.00000000E+00  0.00000000E+00  0.00000000E+00
  0.00000000E+00  0.00000000E+00  0.00000000E+00
  0.00000000E+00  0.00000000E+00  0.00000000E+00
  0.00000000E+00  0.00000000E+00  0.00000000E+00
  0.00000000E+00  0.00000000E+00  0.00000000E+00
  0.00000000E+00  0.00000000E+00  0.00000000E+00
  0.00000000E+00  0.00000000E+00  0.00000000E+00
  0.00000000E+00  0.00000000E+00  0.00000000E+00
  0.00000000E+00  0.00000000E+00  0.00000000E+00
  0.00000000E+00  0.00000000E+00  0.00000000E+00
  0.00000000E+00  0.00000000E+00  0.00000000E+00
  0.00000000E+00  0.00000000E+00  0.00000000E+00
  0.00000000E+00  0.00000000E+00  0.00000000E+00
  0.00000000E+00  0.00000000E+00  0.00000000E+00
  0.00000000E+00  0.00000000E+00  0.00000000E+00
  0.00000000E+00  0.00000000E+00  0.00000000E+00
  0.00000000E+00  0.00000000E+00  0.00000000E+00
  0.00000000E+00  0.00000000E+00  0.00000000E+00
  0.00000000E+00  0.00000000E+00  0.00000000E+00
  0.00000000E+00  0.00000000E+00  0.00000000E+00
  0.00000000E+00  0.00000000E+00  0.00000000E+00
  0.00000000E+00  0.00000000E+00  0.00000000E+00
  0.00000000E+00  0.00000000E+00  0.00000000E+00
  0.00000000E+00  0.00000000E+00  0.00000000E+00
  0.00000000E+00  0.00000000E+00  0.00000000E+00
  0.00000000E+00  0.00000000E+00  0.00000000E+00
