cubic_FA0375MA0250Cs0375                
   1.00000000000000     
    12.7043291883480247   -0.0595508026474944    0.3187078512168711
    -0.0597451321889811   12.7151104891947533   -0.0394176573862128
     0.3187717785276539   -0.0384150100727405   12.6957423837819636
   Cs   I    Pb   C    N    H 
     3    24     8     5     8    27
Direct
  0.2435866205404362  0.7311557500060900  0.2420524258066153
  0.7653284599606538  0.7300791628706077  0.2568951843892983
  0.7405707172096295  0.7256821122802112  0.7316410788960578
  0.0495006088229135  0.0120418251809670  0.2511045214789488
  0.9468965574262954  0.9604816179636345  0.7550821022859479
  0.0135735250997956  0.4775041394704486  0.2456907551753462
  0.0064643886329552  0.5336864336312472  0.7461390702955901
  0.4461996131838137  0.9751141345878485  0.2485433965372017
  0.5532035058888393  0.9885891796282315  0.7447364165648805
  0.5103423676420724  0.4838990769077637  0.2436592369734888
  0.5254555339547644  0.4878052762669007  0.7435511343015044
  0.9967524395360003  0.2448885066527904  0.9760957002182090
  0.9621028786512298  0.2444942515736261  0.5301123328095928
  0.0091299871356383  0.7452973081718519  0.0393364616276489
  0.0133509509983617  0.7444116940945026  0.4674661521767050
  0.5021916576639261  0.2401456628553514  0.9943888735205004
  0.5123765892605712  0.2398950400669520  0.5009002445874462
  0.4815902500180577  0.7410614095073071  0.9924163236834065
  0.4926266473973820  0.7400920748451989  0.4836377217717556
  0.2510343241780659  0.4808797043524730  0.4817237109309764
  0.2495769235144398  0.4997065549351279  0.9839311043967726
  0.2479765707477007  0.0080226563003486  0.5421008751416406
  0.2492485861731093  0.9844120048151637  0.9579484788842408
  0.7523482336619067  0.5133195435273258  0.4859736051784858
  0.7497898857038907  0.5327954436377792 -0.0046699246124391
  0.7518756755241071  0.9714965742182144  0.4564216971097825
  0.7450379147060331  0.9842491229161904  0.0623401796737619
  0.5009127812531444  0.9867697752194747 -0.0004033501112421
  0.5026052485723390  0.9872831694228139  0.4948688651154605
  0.5033042052572233  0.4930634696931056  0.9937782182247394
  0.4991398908522917  0.4918772167634280  0.4958412810120348
  0.9956317161413111  0.9933905505900071  0.0003560178868744
 -0.0008658800716871  0.9902064060287967  0.5021079075968070
  0.9929796281145470  0.4928558507992876  0.9975575180802426
  0.0017082720348016  0.4974733566872518  0.4956501637808269
  0.2502115558081008  0.2684517703064505  0.7620759065545758
  0.2508277782083445  0.2726202471917599  0.2452157518898516
  0.7528513442793600  0.2680695626301133  0.2657657092268489
  0.7678362832865607  0.2659898869032437  0.7802904428630593
  0.2846924114547897  0.7505711484359806  0.7248427484036658
  0.3335574475188550  0.2121789853068949  0.7797143533020310
  0.1846193337599275  0.2473111017778306  0.6880821788959072
  0.3013949986020221  0.2143060135119141  0.3104805660383974
  0.2227069006258828  0.2423036587962515  0.1515553856948398
  0.8391219706557527  0.2162790141210078  0.2828810566889405
  0.6835130067682718  0.2401232415217404  0.1973545740110396
  0.7172395432785897  0.2213564196848846  0.6862965185503469
  0.2103565453754044  0.7288835453506181  0.8170597529897672
  0.2349014306645065  0.3374155375131966  0.8123677336695642
  0.3804469616852904  0.2313543210312420  0.8408104112423772
  0.3520198346258123  0.1455606452894909  0.7377624834106958
  0.1947256354997489  0.1829942148773792  0.6389705489707308
  0.1207024899105275  0.2933418270573678  0.6785114399996418
  0.2297149355086152  0.3522236324090303  0.2713210376182218
  0.3247035186464688  0.2456603577522412  0.3797943874884087
  0.3273734777117915  0.1397029142643539  0.2914681906146487
  0.2363014977304355  0.1683860384254429  0.1219802422458195
  0.1790177674136908  0.2908268794684721  0.1075645900867250
  0.7377315148421537  0.3399859231093820  0.3116683002318363
  0.8866252601805297  0.2411243781079744  0.3411185434267386
  0.8595207032353595  0.1474747663142175  0.2453451490458456
  0.6921207734814221  0.1733844936822979  0.1518592256500638
  0.6190681071874869  0.2861411547199064  0.1883987768988292
  0.6604381520608590  0.2703669070843940  0.6578870089823909
  0.6795180812970963  0.1494805261757208  0.7031001698149155
  0.7739341774607215  0.2096347526722829  0.6251200365938610
  0.7067889944605661  0.2823110063205501  0.8417961866650113
  0.8237336411137215  0.2083896703488933  0.8078073853156282
  0.8098637150076505  0.3384366875567449  0.7570240694247447
  0.1356052024876765  0.7084663053434149  0.7937529427937122
  0.2039962599424228  0.7941171060576098  0.8671685985859365
  0.2346040812254087  0.6656164536395813  0.8619677818930879
  0.2591438440531856  0.8216419591766996  0.6856014874941497
  0.3635659773127151  0.7625544340660014  0.7537050143597803
  0.2838585296569989  0.6834464482867508  0.6706683004761381
 
  0.00000000E+00  0.00000000E+00  0.00000000E+00
  0.00000000E+00  0.00000000E+00  0.00000000E+00
  0.00000000E+00  0.00000000E+00  0.00000000E+00
  0.00000000E+00  0.00000000E+00  0.00000000E+00
  0.00000000E+00  0.00000000E+00  0.00000000E+00
  0.00000000E+00  0.00000000E+00  0.00000000E+00
  0.00000000E+00  0.00000000E+00  0.00000000E+00
  0.00000000E+00  0.00000000E+00  0.00000000E+00
  0.00000000E+00  0.00000000E+00  0.00000000E+00
  0.00000000E+00  0.00000000E+00  0.00000000E+00
  0.00000000E+00  0.00000000E+00  0.00000000E+00
  0.00000000E+00  0.00000000E+00  0.00000000E+00
  0.00000000E+00  0.00000000E+00  0.00000000E+00
  0.00000000E+00  0.00000000E+00  0.00000000E+00
  0.00000000E+00  0.00000000E+00  0.00000000E+00
  0.00000000E+00  0.00000000E+00  0.00000000E+00
  0.00000000E+00  0.00000000E+00  0.00000000E+00
  0.00000000E+00  0.00000000E+00  0.00000000E+00
  0.00000000E+00  0.00000000E+00  0.00000000E+00
  0.00000000E+00  0.00000000E+00  0.00000000E+00
  0.00000000E+00  0.00000000E+00  0.00000000E+00
  0.00000000E+00  0.00000000E+00  0.00000000E+00
  0.00000000E+00  0.00000000E+00  0.00000000E+00
  0.00000000E+00  0.00000000E+00  0.00000000E+00
  0.00000000E+00  0.00000000E+00  0.00000000E+00
  0.00000000E+00  0.00000000E+00  0.00000000E+00
  0.00000000E+00  0.00000000E+00  0.00000000E+00
  0.00000000E+00  0.00000000E+00  0.00000000E+00
  0.00000000E+00  0.00000000E+00  0.00000000E+00
  0.00000000E+00  0.00000000E+00  0.00000000E+00
  0.00000000E+00  0.00000000E+00  0.00000000E+00
  0.00000000E+00  0.00000000E+00  0.00000000E+00
  0.00000000E+00  0.00000000E+00  0.00000000E+00
  0.00000000E+00  0.00000000E+00  0.00000000E+00
  0.00000000E+00  0.00000000E+00  0.00000000E+00
  0.00000000E+00  0.00000000E+00  0.00000000E+00
  0.00000000E+00  0.00000000E+00  0.00000000E+00
  0.00000000E+00  0.00000000E+00  0.00000000E+00
  0.00000000E+00  0.00000000E+00  0.00000000E+00
  0.00000000E+00  0.00000000E+00  0.00000000E+00
  0.00000000E+00  0.00000000E+00  0.00000000E+00
  0.00000000E+00  0.00000000E+00  0.00000000E+00
  0.00000000E+00  0.00000000E+00  0.00000000E+00
  0.00000000E+00  0.00000000E+00  0.00000000E+00
  0.00000000E+00  0.00000000E+00  0.00000000E+00
  0.00000000E+00  0.00000000E+00  0.00000000E+00
  0.00000000E+00  0.00000000E+00  0.00000000E+00
  0.00000000E+00  0.00000000E+00  0.00000000E+00
  0.00000000E+00  0.00000000E+00  0.00000000E+00
  0.00000000E+00  0.00000000E+00  0.00000000E+00
  0.00000000E+00  0.00000000E+00  0.00000000E+00
  0.00000000E+00  0.00000000E+00  0.00000000E+00
  0.00000000E+00  0.00000000E+00  0.00000000E+00
  0.00000000E+00  0.00000000E+00  0.00000000E+00
  0.00000000E+00  0.00000000E+00  0.00000000E+00
  0.00000000E+00  0.00000000E+00  0.00000000E+00
  0.00000000E+00  0.00000000E+00  0.00000000E+00
  0.00000000E+00  0.00000000E+00  0.00000000E+00
  0.00000000E+00  0.00000000E+00  0.00000000E+00
  0.00000000E+00  0.00000000E+00  0.00000000E+00
  0.00000000E+00  0.00000000E+00  0.00000000E+00
  0.00000000E+00  0.00000000E+00  0.00000000E+00
  0.00000000E+00  0.00000000E+00  0.00000000E+00
  0.00000000E+00  0.00000000E+00  0.00000000E+00
  0.00000000E+00  0.00000000E+00  0.00000000E+00
  0.00000000E+00  0.00000000E+00  0.00000000E+00
  0.00000000E+00  0.00000000E+00  0.00000000E+00
  0.00000000E+00  0.00000000E+00  0.00000000E+00
  0.00000000E+00  0.00000000E+00  0.00000000E+00
  0.00000000E+00  0.00000000E+00  0.00000000E+00
  0.00000000E+00  0.00000000E+00  0.00000000E+00
  0.00000000E+00  0.00000000E+00  0.00000000E+00
  0.00000000E+00  0.00000000E+00  0.00000000E+00
  0.00000000E+00  0.00000000E+00  0.00000000E+00
  0.00000000E+00  0.00000000E+00  0.00000000E+00
