ortho_FA0625MA0375Cs0000                
   1.00000000000000     
    11.7379117604001415    0.0970646126396939    0.0910180473404037
     0.0909409227631069    9.3854491379080489    0.0376572954395338
     0.1533036504186893    0.0784659837101558   18.7174480109806751
   Pb   I    Cs   C    N    H 
     8    24     0     8    13    43
Direct
  0.1599521590252674  0.1197686722551213  0.4461101851451317
  0.1642503977370998  0.6204325828681554  0.4488310873014811
  0.8451372904242328  0.3686099887265168  0.5594546986043490
  0.8457496090500369  0.8666838111449825  0.5536656946188189
  0.3625580514959051  0.4068951465265551  0.9374049314177879
  0.3589145352298360  0.8992968416129576  0.9360919859315749
  0.6518369716753638  0.1442483662830290  0.0499847297529182
  0.6742597543594238  0.6427380011020462  0.0515307604313624
  0.1983778382840996  0.1547821931071578  0.0003445149102951
  0.2087949173556181  0.6597310879619056  0.0110663140212029
  0.8373895132031119  0.3760647130959422  0.9997682391916907
  0.8286893594642746  0.9065747868716376  0.9880600481641798
  0.3364856345051095  0.3602196522637293  0.5068038188068625
  0.3243942080509945  0.8668790435167049  0.5069772029714421
  0.6929132859998782  0.1255083215100182  0.4903184702334703
  0.6784890056531915  0.6217898654970232  0.5035335467162099
  0.2601194140136860  0.1398296436037414  0.2931515229222652
  0.2984041615035409  0.6185310727004912  0.3063120935625960
  0.7185734856080196  0.3618650993576130  0.7054314525593246
  0.7200375321416513  0.8788508741929092  0.7024879418060279
  0.2296451670406306  0.3949854884744872  0.7956690671553791
  0.2197002273428671  0.8735079704867386  0.7982555693614923
  0.7659401627188847  0.1390265977949165  0.2007094314456421
  0.8129462569376120  0.6295506888508656  0.1945787974879968
  0.0195234229040156  0.1129570139861068  0.6074145122007146
  0.0262657073176723  0.6173751327429309  0.6077650191609668
  0.9856752617873645  0.3774069485715777  0.3963487261969538
  0.9903751423461958  0.8681757686895123  0.3939891925850882
  0.4865305743094048  0.4092577522288701  0.1002479062271584
  0.4872354820547141  0.8872765269765457  0.1019870276543682
  0.5381329447863782  0.1523849730775131  0.8861467165208040
  0.5459521234405484  0.6465083421500055  0.8915846719143873
  0.0714598319043647  0.8954323914361214  0.1812034579333299
  0.9304090747008821  0.6616971947532058  0.8416999502000944
  0.4130501396010001  0.0894370085702277  0.6814281808177781
  0.5863724687070845  0.3591224587194186  0.3420241784230436
  0.5893107043873508  0.8268236677111376  0.3371712687942191
  0.1137780321741049  0.4311794259856142  0.1690648156128445
  0.9667446551480244  0.1680223821294183  0.8279081269417575
  0.4571704851190410  0.6528088631542668  0.6788624369403079
  0.1763265132280877  0.8457779992562363  0.1781675764627211
  0.0229937332032089  0.9749613818230577  0.1314454155396818
  0.0096206166764938  0.5979288302338990  0.8794852075607559
  0.8891360374058965  0.6134650296605130  0.7821357622374145
  0.5026003059538557  0.1218203691969377  0.6421546972884319
  0.3074842963914757  0.1271054280945217  0.6677094555569700
  0.6888757149915719  0.4111950580564818  0.3335381732419503
  0.5127489428088070  0.3448045818768397  0.2906812844404417
  0.6922471315720778  0.8776111938756582  0.3300515398216515
  0.4944949623974045  0.8954761798706532  0.3215715442963853
  0.0113914732539808  0.3420938723451772  0.1607039063175195
  0.8496890722592946  0.1121860902729271  0.8211858578183255
  0.3405523452099877  0.6120760330870681  0.6574771982396987
  0.0201479201835958  0.8697003465013160  0.2287217503488799
  0.2089383614696481  0.7875280958678463  0.2205379856241282
  0.2301164497254743  0.8645896949627032  0.1357328706789882
  0.0645709909102109  0.0011050606326734  0.0844834368673706
  0.9377001446311005  0.0002908928671740  0.1367210566059029
  0.8938214365433796  0.7613960816832940  0.8624276223207221
  0.0419896741247528  0.6462077082399990  0.9235563113126587
  0.0578920003490099  0.5140644339595465  0.8594421020215159
  0.9131464385334752  0.5184819489977199  0.7599753957270732
  0.8273696983268594  0.6717872825268683  0.7559421310021980
  0.4266223429754503  0.0257109495286339  0.7298583151715343
  0.5813815017148243  0.0849943518830028  0.6571818824913574
  0.4973863430658808  0.1779380703197565  0.5952035195411646
  0.2862758664565899  0.1879523276509808  0.6240599671146076
  0.2446623241346787  0.0924833054753464  0.7019261683226350
  0.5608084713506187  0.3244047026155461  0.3958316251397389
  0.7430412323666991  0.4117544610328909  0.3758054611807032
  0.7203757333078280  0.4476787947748270  0.2851231710541769
  0.5292209133745728  0.3745386908503123  0.2386303206081122
  0.4324169319109879  0.3066998007398590  0.3016925847530500
  0.5811553263803159  0.7190467748486393  0.3590206441155472
  0.7611928010733621  0.8150968087700891  0.3423956608125569
  0.7085149931668541  0.9723181474726120  0.3039030521681471
  0.4906649169004788  0.9967828510051362  0.3015212553360609
  0.4188218158459509  0.8422746582465056  0.3266261745252204
  0.9779606318925154  0.3485855763364414  0.1092727158288931
  0.9450091578741692  0.3761306677344463  0.1941856473645544
  0.0287123755454315  0.2362946201678985  0.1720023742853980
  0.0878022964704651  0.5425929447798157  0.1612265354996991
  0.1471347956665280  0.4142631830402254  0.2228100156249579
  0.1779909736429786  0.3998924206008609  0.1288552864652138
  0.7931637843367020  0.1922312729820729  0.8038120415747614
  0.8200655083372091  0.0691684902334884  0.8693031663403920
  0.8438157206594945  0.0330010215788744  0.7825449660259046
  0.9652221227963177  0.2482972722658270  0.8701043013777864
  0.0259976187973238  0.0810550852345984  0.8420184620370382
  0.9928572785181111  0.2147973446811548  0.7765424911207424
  0.2947186194286993  0.6991633148369418  0.6382299359399447
  0.2955107778628441  0.5673302774371073  0.7008237885430393
  0.3431874616868922  0.5369057875141419  0.6167471693061017
  0.4488661529563777  0.7310747170483789  0.7217809657619090
  0.5033951949725697  0.5579398362731945  0.6982201984667452
  0.5021232619390598  0.6976520851935356  0.6323737875312413
 
  0.00000000E+00  0.00000000E+00  0.00000000E+00
  0.00000000E+00  0.00000000E+00  0.00000000E+00
  0.00000000E+00  0.00000000E+00  0.00000000E+00
  0.00000000E+00  0.00000000E+00  0.00000000E+00
  0.00000000E+00  0.00000000E+00  0.00000000E+00
  0.00000000E+00  0.00000000E+00  0.00000000E+00
  0.00000000E+00  0.00000000E+00  0.00000000E+00
  0.00000000E+00  0.00000000E+00  0.00000000E+00
  0.00000000E+00  0.00000000E+00  0.00000000E+00
  0.00000000E+00  0.00000000E+00  0.00000000E+00
  0.00000000E+00  0.00000000E+00  0.00000000E+00
  0.00000000E+00  0.00000000E+00  0.00000000E+00
  0.00000000E+00  0.00000000E+00  0.00000000E+00
  0.00000000E+00  0.00000000E+00  0.00000000E+00
  0.00000000E+00  0.00000000E+00  0.00000000E+00
  0.00000000E+00  0.00000000E+00  0.00000000E+00
  0.00000000E+00  0.00000000E+00  0.00000000E+00
  0.00000000E+00  0.00000000E+00  0.00000000E+00
  0.00000000E+00  0.00000000E+00  0.00000000E+00
  0.00000000E+00  0.00000000E+00  0.00000000E+00
  0.00000000E+00  0.00000000E+00  0.00000000E+00
  0.00000000E+00  0.00000000E+00  0.00000000E+00
  0.00000000E+00  0.00000000E+00  0.00000000E+00
  0.00000000E+00  0.00000000E+00  0.00000000E+00
  0.00000000E+00  0.00000000E+00  0.00000000E+00
  0.00000000E+00  0.00000000E+00  0.00000000E+00
  0.00000000E+00  0.00000000E+00  0.00000000E+00
  0.00000000E+00  0.00000000E+00  0.00000000E+00
  0.00000000E+00  0.00000000E+00  0.00000000E+00
  0.00000000E+00  0.00000000E+00  0.00000000E+00
  0.00000000E+00  0.00000000E+00  0.00000000E+00
  0.00000000E+00  0.00000000E+00  0.00000000E+00
  0.00000000E+00  0.00000000E+00  0.00000000E+00
  0.00000000E+00  0.00000000E+00  0.00000000E+00
  0.00000000E+00  0.00000000E+00  0.00000000E+00
  0.00000000E+00  0.00000000E+00  0.00000000E+00
  0.00000000E+00  0.00000000E+00  0.00000000E+00
  0.00000000E+00  0.00000000E+00  0.00000000E+00
  0.00000000E+00  0.00000000E+00  0.00000000E+00
  0.00000000E+00  0.00000000E+00  0.00000000E+00
  0.00000000E+00  0.00000000E+00  0.00000000E+00
  0.00000000E+00  0.00000000E+00  0.00000000E+00
  0.00000000E+00  0.00000000E+00  0.00000000E+00
  0.00000000E+00  0.00000000E+00  0.00000000E+00
  0.00000000E+00  0.00000000E+00  0.00000000E+00
  0.00000000E+00  0.00000000E+00  0.00000000E+00
  0.00000000E+00  0.00000000E+00  0.00000000E+00
  0.00000000E+00  0.00000000E+00  0.00000000E+00
  0.00000000E+00  0.00000000E+00  0.00000000E+00
  0.00000000E+00  0.00000000E+00  0.00000000E+00
  0.00000000E+00  0.00000000E+00  0.00000000E+00
  0.00000000E+00  0.00000000E+00  0.00000000E+00
  0.00000000E+00  0.00000000E+00  0.00000000E+00
  0.00000000E+00  0.00000000E+00  0.00000000E+00
  0.00000000E+00  0.00000000E+00  0.00000000E+00
  0.00000000E+00  0.00000000E+00  0.00000000E+00
  0.00000000E+00  0.00000000E+00  0.00000000E+00
  0.00000000E+00  0.00000000E+00  0.00000000E+00
  0.00000000E+00  0.00000000E+00  0.00000000E+00
  0.00000000E+00  0.00000000E+00  0.00000000E+00
  0.00000000E+00  0.00000000E+00  0.00000000E+00
  0.00000000E+00  0.00000000E+00  0.00000000E+00
  0.00000000E+00  0.00000000E+00  0.00000000E+00
  0.00000000E+00  0.00000000E+00  0.00000000E+00
  0.00000000E+00  0.00000000E+00  0.00000000E+00
  0.00000000E+00  0.00000000E+00  0.00000000E+00
  0.00000000E+00  0.00000000E+00  0.00000000E+00
  0.00000000E+00  0.00000000E+00  0.00000000E+00
  0.00000000E+00  0.00000000E+00  0.00000000E+00
  0.00000000E+00  0.00000000E+00  0.00000000E+00
  0.00000000E+00  0.00000000E+00  0.00000000E+00
  0.00000000E+00  0.00000000E+00  0.00000000E+00
  0.00000000E+00  0.00000000E+00  0.00000000E+00
  0.00000000E+00  0.00000000E+00  0.00000000E+00
  0.00000000E+00  0.00000000E+00  0.00000000E+00
  0.00000000E+00  0.00000000E+00  0.00000000E+00
  0.00000000E+00  0.00000000E+00  0.00000000E+00
  0.00000000E+00  0.00000000E+00  0.00000000E+00
  0.00000000E+00  0.00000000E+00  0.00000000E+00
  0.00000000E+00  0.00000000E+00  0.00000000E+00
  0.00000000E+00  0.00000000E+00  0.00000000E+00
  0.00000000E+00  0.00000000E+00  0.00000000E+00
  0.00000000E+00  0.00000000E+00  0.00000000E+00
  0.00000000E+00  0.00000000E+00  0.00000000E+00
  0.00000000E+00  0.00000000E+00  0.00000000E+00
  0.00000000E+00  0.00000000E+00  0.00000000E+00
  0.00000000E+00  0.00000000E+00  0.00000000E+00
  0.00000000E+00  0.00000000E+00  0.00000000E+00
  0.00000000E+00  0.00000000E+00  0.00000000E+00
  0.00000000E+00  0.00000000E+00  0.00000000E+00
  0.00000000E+00  0.00000000E+00  0.00000000E+00
  0.00000000E+00  0.00000000E+00  0.00000000E+00
  0.00000000E+00  0.00000000E+00  0.00000000E+00
  0.00000000E+00  0.00000000E+00  0.00000000E+00
  0.00000000E+00  0.00000000E+00  0.00000000E+00
  0.00000000E+00  0.00000000E+00  0.00000000E+00
