hexa_FA0000MA0250Cs0750                 
   1.00000000000000     
    17.2878462308521499    0.0479808014650773    0.9906366302170034
    -8.6136140007693331   15.1123023409366706   -0.9070296907400553
     0.4479364574668993   -0.2160923414178517    7.9116782132423360
   Pb   I    N    C    H    Cs
     8    24     2     2    12     6
Direct
  0.5036442329776668  0.5036016130869559  0.9416315728165177
  0.5035593470259805  0.0012078935198337  0.9626620215056089
  0.0014618068249511  0.4943228963592913  0.9457238526534714
  0.9981103384998470  0.0019498453644209  0.9568766386532565
  0.9976953255635521  0.9981151574343393  0.4575108187019362
  0.0010613841352639  0.4948826808348248  0.4429578288545790
  0.5051433514669236  0.0036276736392526  0.4588076966899147
  0.5046524704664217  0.5056506000962737  0.4443869164514591
  0.4327654801847926  0.1038830958319615  0.2486420867199380
  0.4252956130443699  0.5980627525925439  0.2358719530261907
  0.9381856368047657  0.1075548000023534  0.2585587822970433
  0.9150112261613783  0.5814392365485893  0.2367728050815302
  0.4119121203975564  0.3366002819824864  0.1837748616173600
  0.4134940772577472  0.8327813969585115  0.1997921820405752
  0.9043653102193953  0.3239630314405630  0.1815711311915858
  0.9008637954969629  0.8321632230669234  0.1888019720055002
  0.1734726996693982  0.0749721568526138  0.1864092384449278
  0.1722201594781532  0.5658712049899752  0.1669753062216542
  0.6733663705803974  0.0719069960479269  0.1888579666577939
  0.6750121085178475  0.5811547139342188  0.1640775851780762
  0.0742852701712200  0.3952112898239490  0.6496236779061759
  0.0591320846756631  0.8891221259401355  0.6825213945871851
  0.5911516427909732  0.4184639845486149  0.6476350017007880
  0.5735106830833080  0.9023784979937862  0.6671357340413275
  0.1142861968869482  0.1670843179311426  0.7154618111345840
  0.0971903273149022  0.6642785996612243  0.7164200439469405
  0.6007370884850740  0.1714334633695689  0.7349151439125388
  0.6009741081385795  0.6771184071253861  0.7161874430190400
  0.3334329891075283  0.4372640796527963  0.7202742208603665
  0.3292183649255344  0.9305201294331844  0.7378072709489483
  0.8304712693275942  0.4215147832813399  0.7227821880033843
  0.8319542777586540  0.9480278133134999  0.7412689983683802
  0.2879729987991141  0.1085792588816229  0.6164533663998423
  0.1648297624063144  0.8671423063300880  0.0899554690465069
  0.3602468706683107  0.1901347260340832  0.6969215427303885
  0.1667083934905043  0.8229720936631155  0.2395447770388425
  0.2273792219133547  0.1089647356839112  0.6370170010238149
  0.2805937575654088  0.0516586383974493  0.6645558379553899
  0.3028364092755125  0.1043487205184869  0.4862191534240926
  0.3447933441664333  0.1904449656508425  0.8348564237085833
  0.4236247527903689  0.1902188156025845  0.6667087821317665
  0.3634887023690546  0.2479952384616038  0.6462237175411625
  0.1721314591189246  0.9302118702645858  0.1249599253483544
  0.1056032160095116  0.8316130807055145  0.0321314643346777
  0.2159004368650948  0.8762343781810423 -0.0035460590462762
  0.1185078247206461  0.8248018589139150  0.3401222249018054
  0.1490316755020202  0.7542327686350710  0.2016157237636796
  0.2339840550342565  0.8584976925373955  0.2842153077533143
  0.1763181857514140  0.3395155842140148  0.1816661819380223
  0.6690361442294180  0.3405279130857093  0.1781951800931264
  0.3329469510988637  0.6667978292641961  0.6952755973897229
  0.6562379896618954  0.8251257635512035  0.1722283614039952
  0.8290947648424964  0.1783819211689260  0.6629712173047057
  0.8234748473869090  0.6499656085580637  0.6914251841231627
 
  0.00000000E+00  0.00000000E+00  0.00000000E+00
  0.00000000E+00  0.00000000E+00  0.00000000E+00
  0.00000000E+00  0.00000000E+00  0.00000000E+00
  0.00000000E+00  0.00000000E+00  0.00000000E+00
  0.00000000E+00  0.00000000E+00  0.00000000E+00
  0.00000000E+00  0.00000000E+00  0.00000000E+00
  0.00000000E+00  0.00000000E+00  0.00000000E+00
  0.00000000E+00  0.00000000E+00  0.00000000E+00
  0.00000000E+00  0.00000000E+00  0.00000000E+00
  0.00000000E+00  0.00000000E+00  0.00000000E+00
  0.00000000E+00  0.00000000E+00  0.00000000E+00
  0.00000000E+00  0.00000000E+00  0.00000000E+00
  0.00000000E+00  0.00000000E+00  0.00000000E+00
  0.00000000E+00  0.00000000E+00  0.00000000E+00
  0.00000000E+00  0.00000000E+00  0.00000000E+00
  0.00000000E+00  0.00000000E+00  0.00000000E+00
  0.00000000E+00  0.00000000E+00  0.00000000E+00
  0.00000000E+00  0.00000000E+00  0.00000000E+00
  0.00000000E+00  0.00000000E+00  0.00000000E+00
  0.00000000E+00  0.00000000E+00  0.00000000E+00
  0.00000000E+00  0.00000000E+00  0.00000000E+00
  0.00000000E+00  0.00000000E+00  0.00000000E+00
  0.00000000E+00  0.00000000E+00  0.00000000E+00
  0.00000000E+00  0.00000000E+00  0.00000000E+00
  0.00000000E+00  0.00000000E+00  0.00000000E+00
  0.00000000E+00  0.00000000E+00  0.00000000E+00
  0.00000000E+00  0.00000000E+00  0.00000000E+00
  0.00000000E+00  0.00000000E+00  0.00000000E+00
  0.00000000E+00  0.00000000E+00  0.00000000E+00
  0.00000000E+00  0.00000000E+00  0.00000000E+00
  0.00000000E+00  0.00000000E+00  0.00000000E+00
  0.00000000E+00  0.00000000E+00  0.00000000E+00
  0.00000000E+00  0.00000000E+00  0.00000000E+00
  0.00000000E+00  0.00000000E+00  0.00000000E+00
  0.00000000E+00  0.00000000E+00  0.00000000E+00
  0.00000000E+00  0.00000000E+00  0.00000000E+00
  0.00000000E+00  0.00000000E+00  0.00000000E+00
  0.00000000E+00  0.00000000E+00  0.00000000E+00
  0.00000000E+00  0.00000000E+00  0.00000000E+00
  0.00000000E+00  0.00000000E+00  0.00000000E+00
  0.00000000E+00  0.00000000E+00  0.00000000E+00
  0.00000000E+00  0.00000000E+00  0.00000000E+00
  0.00000000E+00  0.00000000E+00  0.00000000E+00
  0.00000000E+00  0.00000000E+00  0.00000000E+00
  0.00000000E+00  0.00000000E+00  0.00000000E+00
  0.00000000E+00  0.00000000E+00  0.00000000E+00
  0.00000000E+00  0.00000000E+00  0.00000000E+00
  0.00000000E+00  0.00000000E+00  0.00000000E+00
  0.00000000E+00  0.00000000E+00  0.00000000E+00
  0.00000000E+00  0.00000000E+00  0.00000000E+00
  0.00000000E+00  0.00000000E+00  0.00000000E+00
  0.00000000E+00  0.00000000E+00  0.00000000E+00
  0.00000000E+00  0.00000000E+00  0.00000000E+00
  0.00000000E+00  0.00000000E+00  0.00000000E+00
