ortho_FA0875MA0125Cs0000                
   1.00000000000000     
    11.4444860678992590   -0.1643194555959244    0.2356229368646842
    -0.1539513617142425    9.4158200571348871   -0.2516719270736560
     0.3882097028010001   -0.4523868601194971   19.2402733805934396
   Pb   I    Cs   C    N    H 
     8    24     0     8    15    41
Direct
  0.1537238631067138  0.1071365712344807  0.4281905932596630
  0.1686252984012442  0.6058901752302538  0.4323595226955039
  0.8486752995323452  0.3721132215577320  0.5445645650328630
  0.8474374978558703  0.8708897744436583  0.5546452364058758
  0.3621702969470241  0.3724115410002647  0.9366282520686930
  0.3582595836970907  0.8846048792664738  0.9335446513320158
  0.6619493394212295  0.1368728146669913  0.0470173489903717
  0.6577454461883772  0.6307185711692397  0.0550028944455053
  0.1837687422625048  0.1289231337958039  0.9918785069141185
  0.1853505513053487  0.6238489706590766  0.9902823379625448
  0.8246840654590037  0.3874804130644521  0.9879828812552522
  0.8312236927001977  0.8760125007513092  0.9996157018354423
  0.3410932261816846  0.3523305026965564  0.4774201892507959
  0.3271938747366815  0.8827175868024129  0.4856584296550230
  0.6879890560584203  0.1131056323702563  0.4818207190865090
  0.6673758085102302  0.6163108626987561  0.5169148280991939
  0.2939417332492129  0.0933984678892133  0.2848266003130944
  0.3145422734314450  0.5885181156297886  0.2954813630224182
  0.7312091694495267  0.3586581765406273  0.6904414822746149
  0.7373537457306603  0.8951902599768592  0.7014114815229469
  0.2511408623313907  0.3547756755212730  0.7946925518626671
  0.2417181719437064  0.8844666047774320  0.7917880176125074
  0.7782824782553202  0.1569539457295251  0.1915799919525171
  0.7762330058972460  0.6500431773987473  0.1968285196904793
  0.0294650967603240  0.1377914083808161  0.5886171077759562
  0.0289353895968202  0.6333200107052708  0.5996844450039432
  0.9831225178418868  0.3570717212591848  0.3816029852948634
  0.9815176414759510  0.8329644250135122  0.3860319991216244
  0.4747625396392138  0.3760557964142693  0.1004034362501522
  0.4679783286661942  0.8860242551822266  0.0930165105253623
  0.5473649234576194  0.1257247703269423  0.8869303351559559
  0.5472437955145409  0.6321307356965234  0.8911894569817792
  0.9072659659830151  0.1216807341197139  0.8271713815850266
  0.5567902891280360  0.8605006305764060  0.3319795721411195
  0.4113092734019040  0.1164070630674232  0.6699979817126865
  0.0731463736342756  0.3778612163310725  0.1775531236203868
  0.0705469335931756  0.8653500865658471  0.1839177622465121
  0.9247586126279794  0.6217226296257424  0.8434202797974596
  0.4219888532460496  0.6524906909563283  0.6744836731644228
  0.6138440428288582  0.4236884297442009  0.3448693405047774
  0.9716180676067923  0.0280570376196498  0.8547112172672099
  0.9490966929034457  0.2266300264453749  0.7903341078849102
  0.6408680176543031  0.7937618554304552  0.3599075522317060
  0.5645433704422068  0.9118565302960525  0.2697010769521379
  0.5153514776610310  0.0949485005579773  0.6413592405115722
  0.3213158201176953  0.1577471581318100  0.6367278446657323
  0.1742684970188101  0.3173483386306243  0.1660565971636112
  0.0167729529721769  0.4426185913798384  0.1309123228896475
  0.1647925980321475  0.7890938694680524  0.1763863859310497
  0.0342543683164087  0.9499025577404643  0.1376296943554332
  0.0358752047504516  0.6046276917432055  0.8266589535820572
  0.8431753167253115  0.6386755963938001  0.7989098171267917
  0.4855831714595588  0.5659445871247970  0.7071211726810148
  0.3893602878324441  0.6324882144014982  0.6100904913606002
  0.5568106159625924  0.3010253700268009  0.3065927747786543
  0.8125542281690905  0.1119499175142027  0.8357275523206389
  0.9325479756692380  0.9580942872780334  0.8883230797690103
  0.0607747021546845  0.0236714494095519  0.8458449498300308
  0.0376441796608990  0.2478397129411415  0.7838192895286684
  0.8914845632784791  0.2853992519770883  0.7646621828404773
  0.4754162464287121  0.8761615385635875  0.3630267833863640
  0.6308070007710790  0.7589872560714319  0.4096101403161224
  0.7184624286067237  0.7743241502486324  0.3333663270573138
  0.6365321962120154  0.8979825412484875  0.2368827779810351
  0.4917522356836146  0.9547783733868506  0.2507386617644726
  0.3969740302106006  0.0980406955966895  0.7253594896866785
  0.5813582809480112  0.0599406210035967  0.6704257258059436
  0.5373606284098686  0.1101491745824962  0.5897917157768630
  0.3262247353049674  0.1810410816498253  0.5851176354766731
  0.2434384599566908  0.1727485184414949  0.6632170759555592
  0.0329280137389152  0.3739546572447848  0.2300647157666937
  0.2131665440839310  0.2691704101556609  0.2057063119709587
  0.2169723792249359  0.3134271383669952  0.1183081213843812
  0.0487935926270649  0.4529057949641032  0.0809124179057227
  0.9372162964323095  0.4860998245449187  0.1444189590211903
  0.0180331093773550  0.8573943677420356  0.2323983113178819
  0.1932629613452816  0.7343055352936301  0.2172699092382746
  0.2202012557326388  0.7933392637062523  0.1334051614067735
  0.0788817330607230  0.9663298590687658  0.0912647789656865
  0.9566361288306743  0.0009287003219079  0.1468560512113122
  0.8982713346919438  0.6212135142500705  0.8985026971058754
  0.0938725893633696  0.5947879318622075  0.8653245811483485
  0.0697369395779385  0.6068343576245482  0.7767803380374040
  0.8591834471713509  0.6404348226492181  0.7462257921893123
  0.7582356761762480  0.6495612703439178  0.8164130246584392
  0.3911007214872743  0.7472973689194546  0.7040455246346613
  0.5031910309166153  0.5889485090009760  0.7583193872333418
  0.5269087583985932  0.4799539398944826  0.6837584024568695
  0.4119893887152319  0.5459407076108648  0.5785822624596684
  0.3469131830413398  0.7107413163225547  0.5869552977304818
  0.4685466706536596  0.3166074544215103  0.2995329244466387
  0.5611493407596070  0.2099249107910656  0.3338941020197884
  0.5992459244144687  0.2797077184456520  0.2582868825859879
  0.5745844620823171  0.4319184032849080  0.3977191088269713
  0.7077284269661460  0.4051415928201522  0.3463009702977714
  0.5986896110194723  0.5198301562000182  0.3174062109906514
 
  0.00000000E+00  0.00000000E+00  0.00000000E+00
  0.00000000E+00  0.00000000E+00  0.00000000E+00
  0.00000000E+00  0.00000000E+00  0.00000000E+00
  0.00000000E+00  0.00000000E+00  0.00000000E+00
  0.00000000E+00  0.00000000E+00  0.00000000E+00
  0.00000000E+00  0.00000000E+00  0.00000000E+00
  0.00000000E+00  0.00000000E+00  0.00000000E+00
  0.00000000E+00  0.00000000E+00  0.00000000E+00
  0.00000000E+00  0.00000000E+00  0.00000000E+00
  0.00000000E+00  0.00000000E+00  0.00000000E+00
  0.00000000E+00  0.00000000E+00  0.00000000E+00
  0.00000000E+00  0.00000000E+00  0.00000000E+00
  0.00000000E+00  0.00000000E+00  0.00000000E+00
  0.00000000E+00  0.00000000E+00  0.00000000E+00
  0.00000000E+00  0.00000000E+00  0.00000000E+00
  0.00000000E+00  0.00000000E+00  0.00000000E+00
  0.00000000E+00  0.00000000E+00  0.00000000E+00
  0.00000000E+00  0.00000000E+00  0.00000000E+00
  0.00000000E+00  0.00000000E+00  0.00000000E+00
  0.00000000E+00  0.00000000E+00  0.00000000E+00
  0.00000000E+00  0.00000000E+00  0.00000000E+00
  0.00000000E+00  0.00000000E+00  0.00000000E+00
  0.00000000E+00  0.00000000E+00  0.00000000E+00
  0.00000000E+00  0.00000000E+00  0.00000000E+00
  0.00000000E+00  0.00000000E+00  0.00000000E+00
  0.00000000E+00  0.00000000E+00  0.00000000E+00
  0.00000000E+00  0.00000000E+00  0.00000000E+00
  0.00000000E+00  0.00000000E+00  0.00000000E+00
  0.00000000E+00  0.00000000E+00  0.00000000E+00
  0.00000000E+00  0.00000000E+00  0.00000000E+00
  0.00000000E+00  0.00000000E+00  0.00000000E+00
  0.00000000E+00  0.00000000E+00  0.00000000E+00
  0.00000000E+00  0.00000000E+00  0.00000000E+00
  0.00000000E+00  0.00000000E+00  0.00000000E+00
  0.00000000E+00  0.00000000E+00  0.00000000E+00
  0.00000000E+00  0.00000000E+00  0.00000000E+00
  0.00000000E+00  0.00000000E+00  0.00000000E+00
  0.00000000E+00  0.00000000E+00  0.00000000E+00
  0.00000000E+00  0.00000000E+00  0.00000000E+00
  0.00000000E+00  0.00000000E+00  0.00000000E+00
  0.00000000E+00  0.00000000E+00  0.00000000E+00
  0.00000000E+00  0.00000000E+00  0.00000000E+00
  0.00000000E+00  0.00000000E+00  0.00000000E+00
  0.00000000E+00  0.00000000E+00  0.00000000E+00
  0.00000000E+00  0.00000000E+00  0.00000000E+00
  0.00000000E+00  0.00000000E+00  0.00000000E+00
  0.00000000E+00  0.00000000E+00  0.00000000E+00
  0.00000000E+00  0.00000000E+00  0.00000000E+00
  0.00000000E+00  0.00000000E+00  0.00000000E+00
  0.00000000E+00  0.00000000E+00  0.00000000E+00
  0.00000000E+00  0.00000000E+00  0.00000000E+00
  0.00000000E+00  0.00000000E+00  0.00000000E+00
  0.00000000E+00  0.00000000E+00  0.00000000E+00
  0.00000000E+00  0.00000000E+00  0.00000000E+00
  0.00000000E+00  0.00000000E+00  0.00000000E+00
  0.00000000E+00  0.00000000E+00  0.00000000E+00
  0.00000000E+00  0.00000000E+00  0.00000000E+00
  0.00000000E+00  0.00000000E+00  0.00000000E+00
  0.00000000E+00  0.00000000E+00  0.00000000E+00
  0.00000000E+00  0.00000000E+00  0.00000000E+00
  0.00000000E+00  0.00000000E+00  0.00000000E+00
  0.00000000E+00  0.00000000E+00  0.00000000E+00
  0.00000000E+00  0.00000000E+00  0.00000000E+00
  0.00000000E+00  0.00000000E+00  0.00000000E+00
  0.00000000E+00  0.00000000E+00  0.00000000E+00
  0.00000000E+00  0.00000000E+00  0.00000000E+00
  0.00000000E+00  0.00000000E+00  0.00000000E+00
  0.00000000E+00  0.00000000E+00  0.00000000E+00
  0.00000000E+00  0.00000000E+00  0.00000000E+00
  0.00000000E+00  0.00000000E+00  0.00000000E+00
  0.00000000E+00  0.00000000E+00  0.00000000E+00
  0.00000000E+00  0.00000000E+00  0.00000000E+00
  0.00000000E+00  0.00000000E+00  0.00000000E+00
  0.00000000E+00  0.00000000E+00  0.00000000E+00
  0.00000000E+00  0.00000000E+00  0.00000000E+00
  0.00000000E+00  0.00000000E+00  0.00000000E+00
  0.00000000E+00  0.00000000E+00  0.00000000E+00
  0.00000000E+00  0.00000000E+00  0.00000000E+00
  0.00000000E+00  0.00000000E+00  0.00000000E+00
  0.00000000E+00  0.00000000E+00  0.00000000E+00
  0.00000000E+00  0.00000000E+00  0.00000000E+00
  0.00000000E+00  0.00000000E+00  0.00000000E+00
  0.00000000E+00  0.00000000E+00  0.00000000E+00
  0.00000000E+00  0.00000000E+00  0.00000000E+00
  0.00000000E+00  0.00000000E+00  0.00000000E+00
  0.00000000E+00  0.00000000E+00  0.00000000E+00
  0.00000000E+00  0.00000000E+00  0.00000000E+00
  0.00000000E+00  0.00000000E+00  0.00000000E+00
  0.00000000E+00  0.00000000E+00  0.00000000E+00
  0.00000000E+00  0.00000000E+00  0.00000000E+00
  0.00000000E+00  0.00000000E+00  0.00000000E+00
  0.00000000E+00  0.00000000E+00  0.00000000E+00
  0.00000000E+00  0.00000000E+00  0.00000000E+00
  0.00000000E+00  0.00000000E+00  0.00000000E+00
  0.00000000E+00  0.00000000E+00  0.00000000E+00
  0.00000000E+00  0.00000000E+00  0.00000000E+00
