hexa_FA0250MA0250Cs0500                 
   1.00000000000000     
    17.6980817182911245    0.0881298033713416    0.3788406685125618
    -8.7842880475878431   14.7969346617096065    0.5527623334499574
     0.1618043789725034    0.3893292036033826    7.8723482421345627
   Pb   I    N    C    H    Cs
     8    24     6     4    22     4
Direct
  0.4934042681853498  0.4940160213451041  0.9552544255864196
  0.4973635746625376  0.0043910970879118  0.9382721470140372
  0.0049266089211636  0.4924287368365524  0.9517827173229334
  0.0048000688418315 -0.0012772284899047  0.9380590043385257
  0.0046453107782060 -0.0022855124159520  0.4365187616584290
  0.0045065290817509  0.4925273480155834  0.4541818549971026
  0.4953718004313170  0.0002304895822101  0.4414399636056028
  0.4929556776037456  0.4934021879855414  0.4600820612280706
  0.4295794772876045  0.1037702844850439  0.1887782601886543
  0.4083929252172282  0.5797919114602944  0.2055461625284468
  0.9213235641033378  0.0835210856099993  0.1884732503658224
  0.9252496799525911  0.5819673088290008  0.1972878615490671
  0.3999910112991176  0.3206100704026691  0.2487180856582180
  0.3905490987761521  0.8293943575633257  0.2201405977158454
  0.9105078354367595  0.3174120303944883  0.2463288441927879
  0.9305873204762309  0.8250635181151801  0.2158726378007955
  0.1727130086775998  0.0829561133014577  0.1573817992925608
  0.1726780594257159  0.5736498771566035  0.1739069659957145
  0.6641832038126045  0.0745492902466243  0.1706465327030723
  0.6625022831010409  0.5740708376444394  0.1843785427387274
  0.0879359522783499  0.4053613262228086  0.7078532850768897
  0.0861253251015479  0.9082305732620527  0.6969944150525297
  0.5857129171363566  0.4166151843291532  0.7115192869215046
  0.5651107759211703  0.9016804611684964  0.7020477841211531
  0.1059125617028835  0.1712450056798918  0.6481005700474979
  0.1070572345759693  0.6678843848549139  0.6748703555930032
  0.6103686716917897  0.1755307369801560  0.6468230956569806
  0.5647086546197921  0.6665746629437710  0.6826464463853903
  0.3243982702322997  0.4090633091470268  0.7427165071686361
  0.3283237376324024  0.9307558361025005  0.7199830040151830
  0.8361682194239982  0.4206646553909801  0.7318597753450131
  0.8343746634525308  0.9227803761954994  0.7093516709914767
  0.7215699568220343  0.8112155852198404  0.1926115080817057
  0.5917405249227348  0.8145641296318942  0.1840915518896810
  0.7762182142117621  0.6853190708448377  0.6828689145574981
  0.9040961406985237  0.6780913611293197  0.6898948798922807
  0.2980356254455733  0.1409905809668510  0.5930979628865103
  0.7937321620813660  0.1321255040863892  0.5927422874333521
  0.6772660953682496  0.8535439284464159  0.1884421984594773
  0.8187619128240251  0.6411682352419125  0.6854133652348594
  0.3547506287094643  0.1712129383038650  0.7379273901230874
  0.8405981229629300  0.1626736852713265  0.7499022624346540
  0.7143606098608372  0.9272640720670069  0.1882242803390269
  0.7799042307333198  0.5675805774746163  0.6842809393271644
  0.6929496546230732  0.7422756506484416  0.1908303690683234
  0.7884304682192300  0.8464962729858180  0.1955997435743697
  0.5624842227882293  0.8528422685375402  0.1822134146472714
  0.5505188285370698  0.7458041603158179  0.1847523984121689
  0.8060291251172605  0.7542348784805557  0.6861334712419599
  0.7092193514373832  0.6511786658718601  0.6809403645532690
  0.9316353275964623  0.6382257913340559  0.6914288289652016
  0.9465080764711795  0.7464904590029364  0.6911431456590561
  0.3256490074102170  0.1891588799506004  0.4869868948352172
  0.2360359744311781  0.1318917608327025  0.6244881632906061
  0.2897480453267166  0.0806454905796335  0.5567919163318796
  0.3530454347231514  0.2286168901362630  0.7862042382065666
  0.3295282965909915  0.1148947847355972  0.8381338647374762
  0.4219977003680154  0.1914080410348579  0.6918793401005037
  0.7347744948076002  0.1325843798671993  0.6012538637387059
  0.7790958381167091  0.0671746222301363  0.5742448321156590
  0.8311193079383408  0.1749728942590130  0.4847203838474338
  0.7981407090925626  0.1164608911325694  0.8596780979551276
  0.9020587157869813  0.1619059994736627  0.7368670733172017
  0.8542299778475666  0.2313331431285502  0.7647792755228440
  0.1602868368895685  0.8234212045783736  0.1520466053609337
  0.6746832665128355  0.3389594671056654  0.1906609772976577
  0.3279498510033985  0.6527644566200207  0.6870391023964144
  0.1647111986043719  0.3288982164090890  0.1884470841076799
 
  0.00000000E+00  0.00000000E+00  0.00000000E+00
  0.00000000E+00  0.00000000E+00  0.00000000E+00
  0.00000000E+00  0.00000000E+00  0.00000000E+00
  0.00000000E+00  0.00000000E+00  0.00000000E+00
  0.00000000E+00  0.00000000E+00  0.00000000E+00
  0.00000000E+00  0.00000000E+00  0.00000000E+00
  0.00000000E+00  0.00000000E+00  0.00000000E+00
  0.00000000E+00  0.00000000E+00  0.00000000E+00
  0.00000000E+00  0.00000000E+00  0.00000000E+00
  0.00000000E+00  0.00000000E+00  0.00000000E+00
  0.00000000E+00  0.00000000E+00  0.00000000E+00
  0.00000000E+00  0.00000000E+00  0.00000000E+00
  0.00000000E+00  0.00000000E+00  0.00000000E+00
  0.00000000E+00  0.00000000E+00  0.00000000E+00
  0.00000000E+00  0.00000000E+00  0.00000000E+00
  0.00000000E+00  0.00000000E+00  0.00000000E+00
  0.00000000E+00  0.00000000E+00  0.00000000E+00
  0.00000000E+00  0.00000000E+00  0.00000000E+00
  0.00000000E+00  0.00000000E+00  0.00000000E+00
  0.00000000E+00  0.00000000E+00  0.00000000E+00
  0.00000000E+00  0.00000000E+00  0.00000000E+00
  0.00000000E+00  0.00000000E+00  0.00000000E+00
  0.00000000E+00  0.00000000E+00  0.00000000E+00
  0.00000000E+00  0.00000000E+00  0.00000000E+00
  0.00000000E+00  0.00000000E+00  0.00000000E+00
  0.00000000E+00  0.00000000E+00  0.00000000E+00
  0.00000000E+00  0.00000000E+00  0.00000000E+00
  0.00000000E+00  0.00000000E+00  0.00000000E+00
  0.00000000E+00  0.00000000E+00  0.00000000E+00
  0.00000000E+00  0.00000000E+00  0.00000000E+00
  0.00000000E+00  0.00000000E+00  0.00000000E+00
  0.00000000E+00  0.00000000E+00  0.00000000E+00
  0.00000000E+00  0.00000000E+00  0.00000000E+00
  0.00000000E+00  0.00000000E+00  0.00000000E+00
  0.00000000E+00  0.00000000E+00  0.00000000E+00
  0.00000000E+00  0.00000000E+00  0.00000000E+00
  0.00000000E+00  0.00000000E+00  0.00000000E+00
  0.00000000E+00  0.00000000E+00  0.00000000E+00
  0.00000000E+00  0.00000000E+00  0.00000000E+00
  0.00000000E+00  0.00000000E+00  0.00000000E+00
  0.00000000E+00  0.00000000E+00  0.00000000E+00
  0.00000000E+00  0.00000000E+00  0.00000000E+00
  0.00000000E+00  0.00000000E+00  0.00000000E+00
  0.00000000E+00  0.00000000E+00  0.00000000E+00
  0.00000000E+00  0.00000000E+00  0.00000000E+00
  0.00000000E+00  0.00000000E+00  0.00000000E+00
  0.00000000E+00  0.00000000E+00  0.00000000E+00
  0.00000000E+00  0.00000000E+00  0.00000000E+00
  0.00000000E+00  0.00000000E+00  0.00000000E+00
  0.00000000E+00  0.00000000E+00  0.00000000E+00
  0.00000000E+00  0.00000000E+00  0.00000000E+00
  0.00000000E+00  0.00000000E+00  0.00000000E+00
  0.00000000E+00  0.00000000E+00  0.00000000E+00
  0.00000000E+00  0.00000000E+00  0.00000000E+00
  0.00000000E+00  0.00000000E+00  0.00000000E+00
  0.00000000E+00  0.00000000E+00  0.00000000E+00
  0.00000000E+00  0.00000000E+00  0.00000000E+00
  0.00000000E+00  0.00000000E+00  0.00000000E+00
  0.00000000E+00  0.00000000E+00  0.00000000E+00
  0.00000000E+00  0.00000000E+00  0.00000000E+00
  0.00000000E+00  0.00000000E+00  0.00000000E+00
  0.00000000E+00  0.00000000E+00  0.00000000E+00
  0.00000000E+00  0.00000000E+00  0.00000000E+00
  0.00000000E+00  0.00000000E+00  0.00000000E+00
  0.00000000E+00  0.00000000E+00  0.00000000E+00
  0.00000000E+00  0.00000000E+00  0.00000000E+00
  0.00000000E+00  0.00000000E+00  0.00000000E+00
  0.00000000E+00  0.00000000E+00  0.00000000E+00
