cubic_FA0250MA0500Cs0250                
   1.00000000000000     
    12.6872763700839180   -0.0111194792168511    0.2749469590290473
    -0.0110460490637156   12.7394258986317102    0.0309046346531296
     0.2751651060106472    0.0313340412082485   12.7154049436176972
   Cs   I    Pb   C    N    H 
     2    24     8     6     8    34
Direct
  0.2702577154822470  0.2395496683825072  0.2622639943209503
  0.7527472180852148  0.2416976901515437  0.2207671037565322
 -0.0183210590692413  0.0144226020960618  0.2575407055241058
  0.0566457030504647  0.9861655212390361  0.7536095118308549
  0.9674117062851152  0.4772145270643945  0.2598757349589498
  0.0464185851797575  0.5154757680547091  0.7558219467736733
  0.5282777612611340  0.0222640499617469  0.2514353588236481
  0.4810257662771273  0.9913164359583556  0.7519737949770015
  0.5236899005311482  0.4649075299355978  0.2567857857504696
  0.4913936710789706  0.5237215255635612  0.7573486512756133
  0.9934545490684719  0.2500570642105036  0.9915927106281913
  0.0265743532669191  0.2514949750411821  0.5116297569730269
 -0.0003151225345025  0.7495902940648332  0.0257443526212511
  0.9712145058244833  0.7522114840437764  0.5318679408034382
  0.5098291479870635  0.2536861067976813  0.9907639555549159
  0.4609444671302793  0.2498820341862959  0.5193625155028965
  0.4765829986915914  0.7542194365458660  0.0127474634401880
  0.5005661384039980  0.7512011608090019  0.5058107597845145
  0.2465884264202138  0.5132093208423983  0.4816230888279813
  0.2485573373924297  0.4812172808023552  0.0555890740034388
  0.2494037239965852  0.9906525565353198  0.4775564110676999
  0.2535328421660624  0.0152911474953032  0.0436834621364894
  0.7460831195860945  0.4704921724235906  0.5358454813392246
  0.7512935070073802  0.5014995673480963 -0.0022708125895984
  0.7488163370288833  0.0358300843707268  0.5213187319094894
  0.7555864146833299  0.0047552509397697 -0.0104928025372743
  0.5027318934220598  0.0043153616657551  0.9974178985175570
  0.5008418383910290  0.0016152934108844  0.4999370807510273
  0.4979367003469747  0.5009454888355195  0.0039295934059047
  0.4959759103767656  0.4987759997681446  0.5016425459645897
  0.0054708801157070  0.9983159169408305  0.0026325677569130
 -0.0026461893549754  0.0021329724938364  0.5027763283588638
  0.0026304801970030  0.5004030814787103  0.0030803174335720
  0.9951362065355686  0.4980096046796653  0.5083060608913863
  0.7465323939868955  0.7704644739819642  0.2538753143047219
  0.7466732126924490  0.2484255657508227  0.7882447789130509
  0.7573808022101585  0.7566008996389643  0.7900783410820320
  0.2655689082375167  0.7507403694320524  0.2806737100740200
  0.2676157761933368  0.7547855378215859  0.7918052913912267
  0.2664542737285933  0.2727063117857336  0.7853159081266302
  0.8235309779966835  0.7240645534217912  0.3015736711242143
  0.6955812917979797  0.7287683671810996  0.1767480006601046
  0.8449381255364636  0.2423834476233064  0.7520332939060490
  0.6630791338363301  0.2509447679625470  0.7311094754592623
  0.7220199700058290  0.7270694129101667  0.6837862510725617
  0.2357485727274071  0.7408776570077121  0.1693347161426618
  0.2291731645377783  0.7432149395066390  0.6831308155985116
  0.2323007880389861  0.2107918991616392  0.6936753089437037
  0.7230121404829724  0.8491794713572907  0.2798697703250901
  0.8606486457242972  0.7607755017061113  0.3611261331151284
  0.8512410740255334  0.6505550938173639  0.2810065305109764
  0.7142422457820564  0.6565129295268217  0.1454368402482102
  0.6352628360880238  0.7683307267802979  0.1432281087309760
  0.7328691910368526  0.2517432278767086  0.8735757218544761
  0.9031316956344162  0.2412737553270598  0.8056419945700029
  0.8665927698804646  0.2390937524791290  0.6736246741855130
  0.6666079474075408  0.2480555678519269  0.6508232677562941
  0.5905427445557004  0.2557897282933719  0.7686017572426522
  0.6566612700593523  0.7690743591542292  0.6612380455688126
  0.7016455370952489  0.6482650214967720  0.6797028231891562
  0.7828693431153143  0.7396980545105361  0.6271344251144106
  0.6941154184802654  0.7385021060104698  0.8487235656770752
  0.8280654382234204  0.7110862836433257  0.8065028153826442
  0.7751799575807148  0.8407243769860632  0.7905706419968402
  0.1608855331865134  0.7696109400945712  0.1554203366225936
  0.2364866568585393  0.6625827644225226  0.1446394224094404
  0.2891440184249816  0.7805512795198948  0.1190727480681663
  0.2084079243472953  0.7076642469378719  0.3314376693922178
  0.3440669946587341  0.7164457612640369  0.2884488399580631
  0.2665765797196450  0.8338285188298825  0.3022796356222275
  0.1743293534155566  0.8009207367218243  0.6674065819024118
  0.1927057857348534  0.6707676966431474  0.6742727280067211
  0.2906800333966469  0.7489959433945624  0.6269076789018014
  0.2006375781604139  0.7431095726043864  0.8479415308312332
  0.3286256901561465  0.6956026393000035  0.8034996971694733
  0.3005740520449098  0.8338074720982444  0.7994122584797202
  0.1719483504258408  0.2470239657233066  0.6539958392699905
  0.2035130394638985  0.1368322749443971  0.7157216370632921
  0.2949150387222869  0.2014637177793223  0.6385240521736818
  0.1996648244561041  0.2809066918320888  0.8421985947505014
  0.3312182007092704  0.2309933143052795  0.8214796178877837
  0.2933158051724546  0.3501842958561667  0.7574169816800996
 
  0.00000000E+00  0.00000000E+00  0.00000000E+00
  0.00000000E+00  0.00000000E+00  0.00000000E+00
  0.00000000E+00  0.00000000E+00  0.00000000E+00
  0.00000000E+00  0.00000000E+00  0.00000000E+00
  0.00000000E+00  0.00000000E+00  0.00000000E+00
  0.00000000E+00  0.00000000E+00  0.00000000E+00
  0.00000000E+00  0.00000000E+00  0.00000000E+00
  0.00000000E+00  0.00000000E+00  0.00000000E+00
  0.00000000E+00  0.00000000E+00  0.00000000E+00
  0.00000000E+00  0.00000000E+00  0.00000000E+00
  0.00000000E+00  0.00000000E+00  0.00000000E+00
  0.00000000E+00  0.00000000E+00  0.00000000E+00
  0.00000000E+00  0.00000000E+00  0.00000000E+00
  0.00000000E+00  0.00000000E+00  0.00000000E+00
  0.00000000E+00  0.00000000E+00  0.00000000E+00
  0.00000000E+00  0.00000000E+00  0.00000000E+00
  0.00000000E+00  0.00000000E+00  0.00000000E+00
  0.00000000E+00  0.00000000E+00  0.00000000E+00
  0.00000000E+00  0.00000000E+00  0.00000000E+00
  0.00000000E+00  0.00000000E+00  0.00000000E+00
  0.00000000E+00  0.00000000E+00  0.00000000E+00
  0.00000000E+00  0.00000000E+00  0.00000000E+00
  0.00000000E+00  0.00000000E+00  0.00000000E+00
  0.00000000E+00  0.00000000E+00  0.00000000E+00
  0.00000000E+00  0.00000000E+00  0.00000000E+00
  0.00000000E+00  0.00000000E+00  0.00000000E+00
  0.00000000E+00  0.00000000E+00  0.00000000E+00
  0.00000000E+00  0.00000000E+00  0.00000000E+00
  0.00000000E+00  0.00000000E+00  0.00000000E+00
  0.00000000E+00  0.00000000E+00  0.00000000E+00
  0.00000000E+00  0.00000000E+00  0.00000000E+00
  0.00000000E+00  0.00000000E+00  0.00000000E+00
  0.00000000E+00  0.00000000E+00  0.00000000E+00
  0.00000000E+00  0.00000000E+00  0.00000000E+00
  0.00000000E+00  0.00000000E+00  0.00000000E+00
  0.00000000E+00  0.00000000E+00  0.00000000E+00
  0.00000000E+00  0.00000000E+00  0.00000000E+00
  0.00000000E+00  0.00000000E+00  0.00000000E+00
  0.00000000E+00  0.00000000E+00  0.00000000E+00
  0.00000000E+00  0.00000000E+00  0.00000000E+00
  0.00000000E+00  0.00000000E+00  0.00000000E+00
  0.00000000E+00  0.00000000E+00  0.00000000E+00
  0.00000000E+00  0.00000000E+00  0.00000000E+00
  0.00000000E+00  0.00000000E+00  0.00000000E+00
  0.00000000E+00  0.00000000E+00  0.00000000E+00
  0.00000000E+00  0.00000000E+00  0.00000000E+00
  0.00000000E+00  0.00000000E+00  0.00000000E+00
  0.00000000E+00  0.00000000E+00  0.00000000E+00
  0.00000000E+00  0.00000000E+00  0.00000000E+00
  0.00000000E+00  0.00000000E+00  0.00000000E+00
  0.00000000E+00  0.00000000E+00  0.00000000E+00
  0.00000000E+00  0.00000000E+00  0.00000000E+00
  0.00000000E+00  0.00000000E+00  0.00000000E+00
  0.00000000E+00  0.00000000E+00  0.00000000E+00
  0.00000000E+00  0.00000000E+00  0.00000000E+00
  0.00000000E+00  0.00000000E+00  0.00000000E+00
  0.00000000E+00  0.00000000E+00  0.00000000E+00
  0.00000000E+00  0.00000000E+00  0.00000000E+00
  0.00000000E+00  0.00000000E+00  0.00000000E+00
  0.00000000E+00  0.00000000E+00  0.00000000E+00
  0.00000000E+00  0.00000000E+00  0.00000000E+00
  0.00000000E+00  0.00000000E+00  0.00000000E+00
  0.00000000E+00  0.00000000E+00  0.00000000E+00
  0.00000000E+00  0.00000000E+00  0.00000000E+00
  0.00000000E+00  0.00000000E+00  0.00000000E+00
  0.00000000E+00  0.00000000E+00  0.00000000E+00
  0.00000000E+00  0.00000000E+00  0.00000000E+00
  0.00000000E+00  0.00000000E+00  0.00000000E+00
  0.00000000E+00  0.00000000E+00  0.00000000E+00
  0.00000000E+00  0.00000000E+00  0.00000000E+00
  0.00000000E+00  0.00000000E+00  0.00000000E+00
  0.00000000E+00  0.00000000E+00  0.00000000E+00
  0.00000000E+00  0.00000000E+00  0.00000000E+00
  0.00000000E+00  0.00000000E+00  0.00000000E+00
  0.00000000E+00  0.00000000E+00  0.00000000E+00
  0.00000000E+00  0.00000000E+00  0.00000000E+00
  0.00000000E+00  0.00000000E+00  0.00000000E+00
  0.00000000E+00  0.00000000E+00  0.00000000E+00
  0.00000000E+00  0.00000000E+00  0.00000000E+00
  0.00000000E+00  0.00000000E+00  0.00000000E+00
  0.00000000E+00  0.00000000E+00  0.00000000E+00
  0.00000000E+00  0.00000000E+00  0.00000000E+00
