cubic_FA0500MA0375Cs0125                
   1.00000000000000     
    12.7629170928813025   -0.0568835966110208    0.0504767508702890
    -0.0568378654704909   12.6625938099433650   -0.0777650053714376
     0.0498570965119018   -0.0768368415411107   12.6732218602851887
   Cs   I    Pb   C    N    H 
     1    24     8     7    11    38
Direct
  0.2325366028209017  0.7764874868228185  0.2271863524357132
  0.0004641698957355 -0.0080786346472893  0.2373792990203773
  0.0035953801482218  0.0344115783549975  0.7391442531298562
  0.0217549100387814  0.5395414574571092  0.2305738475700500
  0.9864988705727911  0.5029903044224237  0.7320848188760355
  0.5146109526591087  0.9678429303842644  0.2463834363669034
  0.4842176917247909  0.0104857727691102  0.7469228098859747
  0.4917590176593236  0.5151831804171449  0.2412334770273135
  0.5431604383170474  0.4869409726621813  0.7415456146129397
  0.9625532292033954  0.2619632635010967  0.0094369103031750
  0.0176217853980463  0.2593362616835658  0.4580453534403519
  0.0343036532277277  0.7625958090205572  0.9717081627776988
  0.0017705329970720  0.7600351787279873  0.4828843282427390
  0.5336399077505991  0.2480156646698582  0.9950366662626703
  0.5119393844316110  0.2456771696188711  0.4916712862048851
  0.4632815669955091  0.7462463138206411  0.9941497548875939
  0.5416825675144713  0.7474179001273050  0.5274183597938322
  0.2620768094796783  0.5010974767884322  0.5235315798558009
  0.2504937027094937  0.4615055986617279  0.9672971245713838
  0.2583615708059319  0.9709353680111074  0.4789173421798255
  0.2497583152793535  0.0417242541720795  0.0113924556076620
  0.7608166480576494  0.4938845243650304  0.4630081883793130
  0.7500886547702755  0.5535860180027350  0.9930692323999419
  0.7580677795257671  0.0112477755217379  0.5146536396165281
  0.7469550024014070  0.9796745000105388  0.9616413138268083
  0.4966159808959834  0.9987547989431602  0.9979398032364845
  0.5034053673206367  0.9919995134584787  0.4935538991523012
  0.4940294743269905  0.4956035722868092  0.9880491652107315
  0.5070583556547330  0.4996469615655985  0.4928421906882702
  0.0019876357920371  0.0108209244399976  0.9894680639671642
  0.0111065305493170  0.0110703611790020  0.4879353615017585
  0.0047267792445510  0.5105890313329348  0.9809360769780420
  0.0100807853833406  0.5098380841122835  0.4830353370618797
  0.7285010439873226  0.2607227996131592  0.2627344052684811
  0.2473827307890065  0.2253442183161017  0.7501188521950708
  0.2498897684633474  0.7520272848348148  0.7694845971931241
  0.2581620504628476  0.2589932190644674  0.2728916382432524
  0.7835640518646970  0.2823658642378380  0.7436335899683241
  0.7954222724417523  0.7540363694145757  0.7179675223676455
  0.7735284396874489  0.7873694998759487  0.2547688074735864
  0.7837596096236444  0.1759838040833016  0.2809937533122221
  0.7440175048974602  0.3251272738457920  0.1835158967833186
  0.3414705459884291  0.2678011021246198  0.7437531470312641
  0.1599169588062157  0.2720725202071395  0.7247941866237558
  0.3452736670737814  0.7293822949006185  0.7381074361477687
  0.1738148150301130  0.7847856977462208  0.7092749305824130
  0.3538481399777412  0.2312225561507482  0.2464137063931603
  0.1851432088121834  0.2871080240388374  0.2067073510786566
  0.7043905676028965  0.1972239359574189  0.7231999037464706
  0.7009770171222990  0.7567561040900529  0.7880213394865164
  0.7295120360752524  0.6780827398217750  0.2480188671385758
  0.6643232269222163  0.2782787569945903  0.3180604736122155
  0.7682057464302086  0.1316944078048266  0.3467995543392002
  0.8470508276789576  0.1536075205557246  0.2361651069383277
  0.8018155488620324  0.3128923236211595  0.1276460416582577
  0.6951101971499177  0.3873965335078720  0.1738817132376177
  0.2413002517243032  0.1447706424410281  0.7799810835281140
  0.4040837273675246  0.2235898709013159  0.7652415557006885
  0.3556080449115933  0.3425960924500190  0.7174018737472951
  0.1565233922058609  0.3475344145076259  0.6969035098723200
  0.0914284185970108  0.2294339517113881  0.7299979297811942
  0.2310824202635494  0.7426690054554909  0.8534160779580110
  0.3981209205373946  0.7098321833619680  0.7947619808336267
  0.3722764556872130  0.7367943742663403  0.6621991829867946
  0.1817780363738260  0.7979193826316876  0.6300163749848656
  0.1024642029623187  0.7996985580747310  0.7430909801423772
  0.2365516108429295  0.2584645914488087  0.3566506433496974
  0.4054860956484873  0.2137166481981559  0.3048080890531117
  0.3808455219793033  0.2294783327532573  0.1701330787136088
  0.1976498400348091  0.2937237224714764  0.1270779712386180
  0.1133894134928626  0.3089774951572424  0.2355473686320530
  0.6379887671597936  0.2266531271201853  0.6877326997286703
  0.6808035980877960  0.1596593117586067  0.7916479982429765
  0.7330547520228423  0.1391004428983319  0.6711078530701684
  0.7489539754996755  0.3416966727200881  0.7965717384043929
  0.8520405274280480  0.2470402896388644  0.7801874850373138
  0.8052757231784728  0.3185488025088124  0.6683653619784422
  0.6334322175012745  0.7582313749446681  0.7432774150033138
  0.7028785674293712  0.8236753942604328  0.8375965040542079
  0.6976545530462358  0.6910325532420049  0.8367563441035090
  0.7966465313416667  0.8252837673393379  0.6698457020926922
  0.8650661954974705  0.7511044479282872  0.7678100245597403
  0.7909626065132310  0.6835578958462603  0.6670840624751909
  0.6483503746078055  0.6759305040733348  0.2522726853833310
  0.7555553480942202  0.6302887360817220  0.3091114949892235
  0.7494144347300854  0.6411750638488644  0.1762835426195492
  0.7491947248454075  0.8236351936342319  0.3298223098751846
  0.8590586503502579  0.7830447248264559  0.2507235263735668
  0.7440071426322740  0.8332229562463614  0.1886788233261704
 
  0.00000000E+00  0.00000000E+00  0.00000000E+00
  0.00000000E+00  0.00000000E+00  0.00000000E+00
  0.00000000E+00  0.00000000E+00  0.00000000E+00
  0.00000000E+00  0.00000000E+00  0.00000000E+00
  0.00000000E+00  0.00000000E+00  0.00000000E+00
  0.00000000E+00  0.00000000E+00  0.00000000E+00
  0.00000000E+00  0.00000000E+00  0.00000000E+00
  0.00000000E+00  0.00000000E+00  0.00000000E+00
  0.00000000E+00  0.00000000E+00  0.00000000E+00
  0.00000000E+00  0.00000000E+00  0.00000000E+00
  0.00000000E+00  0.00000000E+00  0.00000000E+00
  0.00000000E+00  0.00000000E+00  0.00000000E+00
  0.00000000E+00  0.00000000E+00  0.00000000E+00
  0.00000000E+00  0.00000000E+00  0.00000000E+00
  0.00000000E+00  0.00000000E+00  0.00000000E+00
  0.00000000E+00  0.00000000E+00  0.00000000E+00
  0.00000000E+00  0.00000000E+00  0.00000000E+00
  0.00000000E+00  0.00000000E+00  0.00000000E+00
  0.00000000E+00  0.00000000E+00  0.00000000E+00
  0.00000000E+00  0.00000000E+00  0.00000000E+00
  0.00000000E+00  0.00000000E+00  0.00000000E+00
  0.00000000E+00  0.00000000E+00  0.00000000E+00
  0.00000000E+00  0.00000000E+00  0.00000000E+00
  0.00000000E+00  0.00000000E+00  0.00000000E+00
  0.00000000E+00  0.00000000E+00  0.00000000E+00
  0.00000000E+00  0.00000000E+00  0.00000000E+00
  0.00000000E+00  0.00000000E+00  0.00000000E+00
  0.00000000E+00  0.00000000E+00  0.00000000E+00
  0.00000000E+00  0.00000000E+00  0.00000000E+00
  0.00000000E+00  0.00000000E+00  0.00000000E+00
  0.00000000E+00  0.00000000E+00  0.00000000E+00
  0.00000000E+00  0.00000000E+00  0.00000000E+00
  0.00000000E+00  0.00000000E+00  0.00000000E+00
  0.00000000E+00  0.00000000E+00  0.00000000E+00
  0.00000000E+00  0.00000000E+00  0.00000000E+00
  0.00000000E+00  0.00000000E+00  0.00000000E+00
  0.00000000E+00  0.00000000E+00  0.00000000E+00
  0.00000000E+00  0.00000000E+00  0.00000000E+00
  0.00000000E+00  0.00000000E+00  0.00000000E+00
  0.00000000E+00  0.00000000E+00  0.00000000E+00
  0.00000000E+00  0.00000000E+00  0.00000000E+00
  0.00000000E+00  0.00000000E+00  0.00000000E+00
  0.00000000E+00  0.00000000E+00  0.00000000E+00
  0.00000000E+00  0.00000000E+00  0.00000000E+00
  0.00000000E+00  0.00000000E+00  0.00000000E+00
  0.00000000E+00  0.00000000E+00  0.00000000E+00
  0.00000000E+00  0.00000000E+00  0.00000000E+00
  0.00000000E+00  0.00000000E+00  0.00000000E+00
  0.00000000E+00  0.00000000E+00  0.00000000E+00
  0.00000000E+00  0.00000000E+00  0.00000000E+00
  0.00000000E+00  0.00000000E+00  0.00000000E+00
  0.00000000E+00  0.00000000E+00  0.00000000E+00
  0.00000000E+00  0.00000000E+00  0.00000000E+00
  0.00000000E+00  0.00000000E+00  0.00000000E+00
  0.00000000E+00  0.00000000E+00  0.00000000E+00
  0.00000000E+00  0.00000000E+00  0.00000000E+00
  0.00000000E+00  0.00000000E+00  0.00000000E+00
  0.00000000E+00  0.00000000E+00  0.00000000E+00
  0.00000000E+00  0.00000000E+00  0.00000000E+00
  0.00000000E+00  0.00000000E+00  0.00000000E+00
  0.00000000E+00  0.00000000E+00  0.00000000E+00
  0.00000000E+00  0.00000000E+00  0.00000000E+00
  0.00000000E+00  0.00000000E+00  0.00000000E+00
  0.00000000E+00  0.00000000E+00  0.00000000E+00
  0.00000000E+00  0.00000000E+00  0.00000000E+00
  0.00000000E+00  0.00000000E+00  0.00000000E+00
  0.00000000E+00  0.00000000E+00  0.00000000E+00
  0.00000000E+00  0.00000000E+00  0.00000000E+00
  0.00000000E+00  0.00000000E+00  0.00000000E+00
  0.00000000E+00  0.00000000E+00  0.00000000E+00
  0.00000000E+00  0.00000000E+00  0.00000000E+00
  0.00000000E+00  0.00000000E+00  0.00000000E+00
  0.00000000E+00  0.00000000E+00  0.00000000E+00
  0.00000000E+00  0.00000000E+00  0.00000000E+00
  0.00000000E+00  0.00000000E+00  0.00000000E+00
  0.00000000E+00  0.00000000E+00  0.00000000E+00
  0.00000000E+00  0.00000000E+00  0.00000000E+00
  0.00000000E+00  0.00000000E+00  0.00000000E+00
  0.00000000E+00  0.00000000E+00  0.00000000E+00
  0.00000000E+00  0.00000000E+00  0.00000000E+00
  0.00000000E+00  0.00000000E+00  0.00000000E+00
  0.00000000E+00  0.00000000E+00  0.00000000E+00
  0.00000000E+00  0.00000000E+00  0.00000000E+00
  0.00000000E+00  0.00000000E+00  0.00000000E+00
  0.00000000E+00  0.00000000E+00  0.00000000E+00
  0.00000000E+00  0.00000000E+00  0.00000000E+00
  0.00000000E+00  0.00000000E+00  0.00000000E+00
  0.00000000E+00  0.00000000E+00  0.00000000E+00
  0.00000000E+00  0.00000000E+00  0.00000000E+00
