ortho_FA0000MA0625Cs0375                
   1.00000000000000     
    11.0893889614645342    0.0681481066589838    0.1500707415652124
     0.0652282248843265    9.6632281624674974    0.0402874082482237
     0.2523718468629722    0.0700631368954353   18.5585097436298341
   Pb   I    Cs   C    N    H 
     8    24     3     5     5    30
Direct
  0.1784511632571046  0.1200072512809233  0.4482641250260256
  0.1794076191064906  0.6190723946009198  0.4458640961898097
  0.8512020240111661  0.3693903106693829  0.5618855204931067
  0.8469868306343631  0.8708411557218811  0.5552608952663384
  0.3513554669831139  0.3861466091091351  0.9413046940312551
  0.3448277350487082  0.8714661275609873  0.9399374550994375
  0.6591135972996308  0.1314770973297860  0.0620774925306941
  0.6618373362153493  0.6293945142315048  0.0599539096251491
  0.1830276499209224  0.1422950237604720  0.9990865317933905
  0.1783718103371758  0.6228432677725305  0.0059711680141780
  0.8218738351948022  0.3759351681925737  0.9892447126814733
  0.8474519140755454  0.8870753297496534  0.0160877567665459
  0.3412284992776695  0.3687356843606627  0.5111278102176530
  0.3429379509577584  0.8668609527120236  0.5092963510744321
  0.6758959925076889  0.1331833200633552  0.5110926051147517
  0.6791143173249807  0.6139340519508705  0.5042105927737714
  0.3182630046780449  0.1308447341173020  0.3013738263175228
  0.3148643882496880  0.6098427473880721  0.2996481376208724
  0.6992543570199157  0.3675153245795207  0.7121697468897659
  0.7036390128786111  0.8626109046311017  0.7051611485100295
  0.2355199993653359  0.3849873699053528  0.7906715395927099
  0.2380102909806795  0.8735554409102524  0.7886326051887792
  0.7886451897383695  0.1331114605103613  0.2126400248578086
  0.7763031689985791  0.6097128896094599  0.2140425390391806
  0.0290552876356508  0.1079159718325565  0.6116539736531144
  0.0338256615358492  0.6262752223096290  0.6107188638009566
  0.9895639724424545  0.3716300700441918  0.4018127763486946
  0.9950463100487656  0.8748421925037911  0.3935642450966235
  0.4770489338116619  0.3868333702144633  0.1093376877086078
  0.4755140875769388  0.8789946815677283  0.1064565424501286
  0.5370466476694395  0.1178870403811853  0.8976455327430577
  0.5446031930739557  0.6409253947374941  0.8947281641495217
  0.4236176884133012  0.1244571059773503  0.6766780337424487
  0.4272634676057662  0.6223091547366526  0.6724300597464457
  0.5877652942744784  0.3695408045750140  0.3406271204429158
  0.1059298073567137  0.3944518033146336  0.1873081578310372
  0.1287472345461177  0.8976096750536786  0.1710045730152488
  0.9657623144220420  0.1353372831738428  0.8342163503357304
  0.6196972871344967  0.9035928391689240  0.3556969471210965
  0.9568813570310425  0.6491679469802352  0.8524965616507743
  0.0226550500263842  0.3391682009911987  0.1333658782401997
  0.0051008167300015  0.8475489730400139  0.1890140896638373
  0.8376635261173166  0.1085394766075343  0.8177888314594376
  0.5403081590424634  0.8656744866589159  0.2960217976520857
  0.8928507115865689  0.6098713570104207  0.7865112857239404
  0.9791469627094372  0.4158374099441402  0.1042483228035941
  0.9543046364251705  0.2792596228368405  0.1577411552878726
  0.0687072230746042  0.2775089765909986  0.0951422824242985
  0.0534097973756929  0.4561914555861759  0.2265021427764467
  0.1501587323810877  0.3079035940491506  0.2150937599983761
  0.1742070551424316  0.4576363502140064  0.1593484092097482
  0.9431633403837731  0.8806744593658352  0.1509942311878045
  0.9743899837446112  0.8817466698804440  0.2391880832393643
  0.9990060150534952  0.7407130240106249  0.1906029448337744
  0.1275390956771419  0.0108098635564920  0.1725092468722491
  0.1913265963998900  0.8564387932045352  0.2107076782702162
  0.1548366925892532  0.8622239586688256  0.1168331947473135
  0.7992383666284948  0.1898971737704437  0.7878987781295861
  0.7834496855105967  0.0971393707643797  0.8637939455685882
  0.8260853070780185  0.0204652898362642  0.7867099116824363
  0.9699676286703719  0.2317430724038227  0.8645648643581502
  0.0008810792585079  0.0501574993617507  0.8670933951653188
  0.0183514517014311  0.1437940012628925  0.7836178842592089
  0.4745038460489541  0.9431287696429735  0.2881911226103516
  0.4916933550699991  0.7753634516077825  0.3066295078567192
  0.5878793201241250  0.8512428931789355  0.2478306289989174
  0.5672771653769423  0.8983956373176019  0.4064949777530694
  0.6970259792319727  0.8320467535986844  0.3567576595584007
  0.6519275523773458  0.0088638258352007  0.3460734531771336
  0.8296053048008012  0.6849385256034605  0.7708266309901610
  0.8453342311834343  0.5181672805896576  0.7916457193152717
  0.9520846238610162  0.5983542929929931  0.7422796763596234
  0.8926083963508813  0.6517833350087698  0.8982472817069155
  0.0290065873275721  0.5733837614711078  0.8621316416328381
  0.9971552028767716  0.7510295923025577  0.8435796092660643
 
  0.00000000E+00  0.00000000E+00  0.00000000E+00
  0.00000000E+00  0.00000000E+00  0.00000000E+00
  0.00000000E+00  0.00000000E+00  0.00000000E+00
  0.00000000E+00  0.00000000E+00  0.00000000E+00
  0.00000000E+00  0.00000000E+00  0.00000000E+00
  0.00000000E+00  0.00000000E+00  0.00000000E+00
  0.00000000E+00  0.00000000E+00  0.00000000E+00
  0.00000000E+00  0.00000000E+00  0.00000000E+00
  0.00000000E+00  0.00000000E+00  0.00000000E+00
  0.00000000E+00  0.00000000E+00  0.00000000E+00
  0.00000000E+00  0.00000000E+00  0.00000000E+00
  0.00000000E+00  0.00000000E+00  0.00000000E+00
  0.00000000E+00  0.00000000E+00  0.00000000E+00
  0.00000000E+00  0.00000000E+00  0.00000000E+00
  0.00000000E+00  0.00000000E+00  0.00000000E+00
  0.00000000E+00  0.00000000E+00  0.00000000E+00
  0.00000000E+00  0.00000000E+00  0.00000000E+00
  0.00000000E+00  0.00000000E+00  0.00000000E+00
  0.00000000E+00  0.00000000E+00  0.00000000E+00
  0.00000000E+00  0.00000000E+00  0.00000000E+00
  0.00000000E+00  0.00000000E+00  0.00000000E+00
  0.00000000E+00  0.00000000E+00  0.00000000E+00
  0.00000000E+00  0.00000000E+00  0.00000000E+00
  0.00000000E+00  0.00000000E+00  0.00000000E+00
  0.00000000E+00  0.00000000E+00  0.00000000E+00
  0.00000000E+00  0.00000000E+00  0.00000000E+00
  0.00000000E+00  0.00000000E+00  0.00000000E+00
  0.00000000E+00  0.00000000E+00  0.00000000E+00
  0.00000000E+00  0.00000000E+00  0.00000000E+00
  0.00000000E+00  0.00000000E+00  0.00000000E+00
  0.00000000E+00  0.00000000E+00  0.00000000E+00
  0.00000000E+00  0.00000000E+00  0.00000000E+00
  0.00000000E+00  0.00000000E+00  0.00000000E+00
  0.00000000E+00  0.00000000E+00  0.00000000E+00
  0.00000000E+00  0.00000000E+00  0.00000000E+00
  0.00000000E+00  0.00000000E+00  0.00000000E+00
  0.00000000E+00  0.00000000E+00  0.00000000E+00
  0.00000000E+00  0.00000000E+00  0.00000000E+00
  0.00000000E+00  0.00000000E+00  0.00000000E+00
  0.00000000E+00  0.00000000E+00  0.00000000E+00
  0.00000000E+00  0.00000000E+00  0.00000000E+00
  0.00000000E+00  0.00000000E+00  0.00000000E+00
  0.00000000E+00  0.00000000E+00  0.00000000E+00
  0.00000000E+00  0.00000000E+00  0.00000000E+00
  0.00000000E+00  0.00000000E+00  0.00000000E+00
  0.00000000E+00  0.00000000E+00  0.00000000E+00
  0.00000000E+00  0.00000000E+00  0.00000000E+00
  0.00000000E+00  0.00000000E+00  0.00000000E+00
  0.00000000E+00  0.00000000E+00  0.00000000E+00
  0.00000000E+00  0.00000000E+00  0.00000000E+00
  0.00000000E+00  0.00000000E+00  0.00000000E+00
  0.00000000E+00  0.00000000E+00  0.00000000E+00
  0.00000000E+00  0.00000000E+00  0.00000000E+00
  0.00000000E+00  0.00000000E+00  0.00000000E+00
  0.00000000E+00  0.00000000E+00  0.00000000E+00
  0.00000000E+00  0.00000000E+00  0.00000000E+00
  0.00000000E+00  0.00000000E+00  0.00000000E+00
  0.00000000E+00  0.00000000E+00  0.00000000E+00
  0.00000000E+00  0.00000000E+00  0.00000000E+00
  0.00000000E+00  0.00000000E+00  0.00000000E+00
  0.00000000E+00  0.00000000E+00  0.00000000E+00
  0.00000000E+00  0.00000000E+00  0.00000000E+00
  0.00000000E+00  0.00000000E+00  0.00000000E+00
  0.00000000E+00  0.00000000E+00  0.00000000E+00
  0.00000000E+00  0.00000000E+00  0.00000000E+00
  0.00000000E+00  0.00000000E+00  0.00000000E+00
  0.00000000E+00  0.00000000E+00  0.00000000E+00
  0.00000000E+00  0.00000000E+00  0.00000000E+00
  0.00000000E+00  0.00000000E+00  0.00000000E+00
  0.00000000E+00  0.00000000E+00  0.00000000E+00
  0.00000000E+00  0.00000000E+00  0.00000000E+00
  0.00000000E+00  0.00000000E+00  0.00000000E+00
  0.00000000E+00  0.00000000E+00  0.00000000E+00
  0.00000000E+00  0.00000000E+00  0.00000000E+00
  0.00000000E+00  0.00000000E+00  0.00000000E+00
