cubic_FA0250MA0000Cs0750                
   1.00000000000000     
    12.7140686216012124   -0.0506719734372130    0.0760461642903548
    -0.0509820211200358   12.7039636193307484   -0.0383961770577769
     0.0749016955275117   -0.0372962590269220   12.7733241696845923
   Cs   I    Pb   C    N    H 
     6    24     8     2     4    10
Direct
  0.2466509194660320  0.2384552911555047  0.7406534808541249
  0.2460529049577770  0.7543595298544978  0.7381437663561923
  0.7580553620860856  0.2516996206102454  0.2473023871095361
  0.7637425609198298  0.2505386517759586  0.7387434097201320
  0.7498428126017076  0.7422008036961293  0.2505177725674440
  0.7493000857988497  0.7485785869387623  0.7400513428162248
 -0.0175592773345492 -0.0290497261710610  0.2401455976253939
  0.0153745272735400  0.0047917618790326  0.7391668683716902
 -0.0076310258164389  0.4908430354552620  0.2393644712882987
 -0.0041511829149075  0.4872181694914726  0.7401391730701770
  0.5447432748643939 -0.0008056923986212  0.2477003123127361
  0.4946615480608924 -0.0064154973557031  0.7474512402861513
  0.5242410326092842  0.4961587115933618  0.2460732875127424
  0.5104899081667341  0.4899286329033753  0.7474488502803640
  0.0207952879830021  0.2503773117916481 -0.0183431052717083
 -0.0083837182686995  0.2447206212383388  0.4845740008113859
 -0.0468556783018130  0.7493206713265651 -0.0203265669417859
  0.0051244259229758  0.7457417810708336  0.5117435046101009
  0.4509009640632216  0.2499504184034615  0.0100712278936183
  0.5277935533368033  0.2437964617474672  0.5112210018488946
  0.5467402857026351  0.7492707459070246 -0.0053686962519797
  0.5071408956306290  0.7440421710273345  0.5031493511690832
  0.2557403715500929  0.4881450031979064  0.5226289555749239
  0.2496876192170530  0.5513040116935055  0.9926526393087443
  0.2584805398654711 -0.0007235524043222  0.4911165209970251
  0.2484723295929080 -0.0293261920022573  0.9769953008784473
  0.7564909851260890  0.5061358256869342  0.4953843636750830
  0.7489887735806411  0.4583103772961549 -0.0102579339333802
  0.7582316324798360  0.9873374118858157  0.5209361564709792
  0.7484674179151009  0.0427780142137468 -0.0249722500097926
  0.5018287001157625 -0.0034019121058195 -0.0037812596683220
  0.5122045322597795 -0.0036604067944624  0.4971441577156694
  0.5029954147660930  0.4991561537482307 -0.0063059000742227
  0.5046502991979697  0.4904934219621263  0.4965120248427669
  0.0000807823957237  0.0010615936160080 -0.0115107467323210
  0.0043978047113444 -0.0054199914237400  0.4901940968419344
  0.9969070627035695  0.5009884647929291 -0.0129719889228912
  0.0070439308208799  0.4973100375442808  0.4910748267501859
  0.2480997943124134  0.7684097625210194  0.2662874659963073
  0.2334732340240556  0.2516202219592346  0.2680047725368708
  0.3369269161041137  0.7170291360586646  0.2734466388972334
  0.1788219571456980  0.7556269446026080  0.1916771944999040
  0.3051952482595459  0.1777440807533642  0.2713017685770319
  0.2320489520467748  0.3278149197556270  0.1991075297074088
  0.2308169258946855  0.8268624557696792  0.3274782500161602
  0.3852214921690506  0.7304479846973587  0.3361255101233889
  0.3599141469699589  0.6601477985857285  0.2212992369505243
  0.1901308878325729  0.7033453451825891  0.1309121051759211
  0.1132674527770630  0.8019646874660395  0.1917540611095211
  0.1704984919290289  0.2493336227115757  0.3270334138329844
  0.3001274244095967  0.1214833373218716  0.3284634243229258
  0.3665976918582730  0.1743472725205668  0.2188386642757021
  0.2870257074414889  0.3329588729375441  0.1396859926113649
  0.1716868185780104  0.3811167959054056  0.2011455393105053
 
  0.00000000E+00  0.00000000E+00  0.00000000E+00
  0.00000000E+00  0.00000000E+00  0.00000000E+00
  0.00000000E+00  0.00000000E+00  0.00000000E+00
  0.00000000E+00  0.00000000E+00  0.00000000E+00
  0.00000000E+00  0.00000000E+00  0.00000000E+00
  0.00000000E+00  0.00000000E+00  0.00000000E+00
  0.00000000E+00  0.00000000E+00  0.00000000E+00
  0.00000000E+00  0.00000000E+00  0.00000000E+00
  0.00000000E+00  0.00000000E+00  0.00000000E+00
  0.00000000E+00  0.00000000E+00  0.00000000E+00
  0.00000000E+00  0.00000000E+00  0.00000000E+00
  0.00000000E+00  0.00000000E+00  0.00000000E+00
  0.00000000E+00  0.00000000E+00  0.00000000E+00
  0.00000000E+00  0.00000000E+00  0.00000000E+00
  0.00000000E+00  0.00000000E+00  0.00000000E+00
  0.00000000E+00  0.00000000E+00  0.00000000E+00
  0.00000000E+00  0.00000000E+00  0.00000000E+00
  0.00000000E+00  0.00000000E+00  0.00000000E+00
  0.00000000E+00  0.00000000E+00  0.00000000E+00
  0.00000000E+00  0.00000000E+00  0.00000000E+00
  0.00000000E+00  0.00000000E+00  0.00000000E+00
  0.00000000E+00  0.00000000E+00  0.00000000E+00
  0.00000000E+00  0.00000000E+00  0.00000000E+00
  0.00000000E+00  0.00000000E+00  0.00000000E+00
  0.00000000E+00  0.00000000E+00  0.00000000E+00
  0.00000000E+00  0.00000000E+00  0.00000000E+00
  0.00000000E+00  0.00000000E+00  0.00000000E+00
  0.00000000E+00  0.00000000E+00  0.00000000E+00
  0.00000000E+00  0.00000000E+00  0.00000000E+00
  0.00000000E+00  0.00000000E+00  0.00000000E+00
  0.00000000E+00  0.00000000E+00  0.00000000E+00
  0.00000000E+00  0.00000000E+00  0.00000000E+00
  0.00000000E+00  0.00000000E+00  0.00000000E+00
  0.00000000E+00  0.00000000E+00  0.00000000E+00
  0.00000000E+00  0.00000000E+00  0.00000000E+00
  0.00000000E+00  0.00000000E+00  0.00000000E+00
  0.00000000E+00  0.00000000E+00  0.00000000E+00
  0.00000000E+00  0.00000000E+00  0.00000000E+00
  0.00000000E+00  0.00000000E+00  0.00000000E+00
  0.00000000E+00  0.00000000E+00  0.00000000E+00
  0.00000000E+00  0.00000000E+00  0.00000000E+00
  0.00000000E+00  0.00000000E+00  0.00000000E+00
  0.00000000E+00  0.00000000E+00  0.00000000E+00
  0.00000000E+00  0.00000000E+00  0.00000000E+00
  0.00000000E+00  0.00000000E+00  0.00000000E+00
  0.00000000E+00  0.00000000E+00  0.00000000E+00
  0.00000000E+00  0.00000000E+00  0.00000000E+00
  0.00000000E+00  0.00000000E+00  0.00000000E+00
  0.00000000E+00  0.00000000E+00  0.00000000E+00
  0.00000000E+00  0.00000000E+00  0.00000000E+00
  0.00000000E+00  0.00000000E+00  0.00000000E+00
  0.00000000E+00  0.00000000E+00  0.00000000E+00
  0.00000000E+00  0.00000000E+00  0.00000000E+00
  0.00000000E+00  0.00000000E+00  0.00000000E+00
