cubic_FA0375MA0625Cs0000                
   1.00000000000000     
    12.7641087915265192   -0.1436944390730079    0.1395229712157280
    -0.1421971829058827   12.6613504798401344   -0.1227717772065154
     0.1383461951374057   -0.1229091680869203   12.7458426691679243
   Cs   I    Pb   C    N    H 
     0    24     8     8    11    45
Direct
  0.0397891349976557  0.0118677818591120  0.2509632897712150
  0.0228272550398598  0.9833524887442395  0.7505693809318500
  0.0197111726218871  0.4959254088838786  0.2477137058857802
  0.0167586209947908  0.5206997611398893  0.7474126222000433
  0.5300156192496415  0.9858272068381877  0.2558203257781125
  0.5247192241574803  0.0259975038325647  0.7562423915047508
  0.5062290556630480  0.5426302535877945  0.2494475395253436
  0.4988808229409443  0.5089033457211515  0.7490983585674220
  0.0061627615764109  0.2473292939755193  0.9868470974801046
  0.9983509594052375  0.2599575335156204  0.4976170715034295
  0.0341520827035913  0.7484411245414603  0.0219417554893784
  0.0012648807965066  0.7584716375074243  0.4882738790589317
  0.5155079393167723  0.2545022566554452  0.0366070650118914
  0.4872160532035171  0.2596590717501184  0.4875206926957660
  0.4980085082389419  0.7534018071494598  0.9890965695593734
  0.4814919752780831  0.7598543486928877  0.5143214316511273
  0.2466073859920900  0.5211278422675502  0.4953611899675717
  0.2571697368309218  0.4728483520150527  0.0077236777645989
  0.2562016486875663  0.0002672227150560  0.5145849069162002
  0.2671058168064311  0.0113607441320986  0.0064232533993339
  0.7455661053545137  0.4769823081786324  0.4846125329542639
  0.7588424022957188  0.5167671449493755  0.0009487629842623
  0.7571140008317236  0.0193461202784716  0.5052005928553811
  0.7653899355010548  0.9805748175095048  0.0176960158815700
  0.5143420592980772  0.0004104741380540  0.0044363371655339
  0.5068138957138602  0.0067289687186830  0.5033119352369522
  0.5021513796182254  0.5051327088890583  0.0014426005957023
  0.4986152511464483  0.5122258822428951  0.4985376785946727
  0.0117906517517031  0.9943964374619016  0.0001331140280214
  0.0039372859218413  0.0091292684009872  0.4975057652860588
  0.0065938236132289  0.5034377184552419  0.9995810603221692
  0.9905168745876648  0.5088352127598744  0.4919479938944273
  0.2407226633321481  0.2673029398556391  0.7585187458318474
  0.7526912716235861  0.2540704743128099  0.7728392046885898
  0.7513085869146660  0.7170930507372426  0.7526911311737310
  0.2808813656396673  0.7765109998062907  0.2140721745984972
  0.2820808922528527  0.7622980388656759  0.7830621275623177
  0.2637538902826322  0.2756148999902221  0.2825780126714925
  0.7747082299103637  0.7552712188770129  0.2829351125842717
  0.7894517858080056  0.2629393938646821  0.2344468814311994
  0.2999341008142755  0.1971452769038159  0.8011461025187204
  0.2304330609650088  0.2781506265832820  0.6571168020014521
  0.8499997928058188  0.2311481419203581  0.7481069765066238
  0.6854413714882762  0.2925634598558085  0.7080010377064131
  0.8483137101022045  0.7536847054063793  0.7541944756405218
  0.6673544511257448  0.7731031725705678  0.7402904673895936
  0.2167129128110916  0.7201139655179477  0.2955976761126053
  0.2105361865510384  0.7315582161309544  0.6961061790921288
  0.2184655396458662  0.2296022336211286  0.1847626386918500
  0.7164688676883089  0.7401487944742827  0.1834377564833048
  0.6784743567450110  0.2356936705257260  0.2636063698246557
  0.1974784825737696  0.3206096806627245  0.8114463788684947
  0.2979637338148041  0.1872214198544299  0.8804771739619666
  0.3438956468575440  0.1439438163518040  0.7585725053227257
  0.2659463682583244  0.2291245391258021  0.6030422110478396
  0.1840029589498783  0.3352472219691088  0.6292189828790402
  0.7253329803857860  0.2397219122216268  0.8533617517361756
  0.8982888425955572  0.2060076211422825  0.8052524443923426
  0.8824006922847990  0.2416645542439710  0.6742657017871083
  0.7052465899081723  0.3133647032861744  0.6327012224322074
  0.6119968666939050  0.3119069927072186  0.7339773334392505
  0.7388770493645560  0.6321517264248065  0.7630617415259454
  0.9070338198765351  0.7008079771713813  0.7622658758990091
  0.8702218107898555  0.8317186058344418  0.7459533337795093
  0.6680978783615493  0.8532838909162495  0.7314602231752511
  0.5959323915831056  0.7353037815990280  0.7417652403083289
  0.1402186122025511  0.7063728875559927  0.2724078436273493
  0.2126652969413887  0.7625107747531064  0.3657289687570346
  0.2463229623813758  0.6469658166037152  0.3131906756984214
  0.2526984916129511  0.8572939997525036  0.2091460701153519
  0.3630666285956871  0.7770387254512147  0.2368049774325365
  0.2712274246292016  0.7349016805014362  0.1387023076635285
  0.1831534869104216  0.7968900311564340  0.6584461808821993
  0.1458386834052645  0.6873434909890858  0.7231083870205698
  0.2469438400380355  0.6837697305538121  0.6392525446841060
  0.2421378039090194  0.8181422828791797  0.8360514018079218
  0.3019201698694461  0.6911994624053357  0.8252915286048284
  0.3531628200474042  0.7992379165435698  0.7490705947817931
  0.1575546872275556  0.2736252402145286  0.1573693911779392
  0.1877557461844754  0.1534321605350155  0.1965738716516323
  0.2740530970805279  0.2248024678956305  0.1245989495506351
  0.2058531757698276  0.2664142310389060  0.3466855446302397
  0.3349880624894137  0.2333383585073164  0.3001259031582919
  0.2823015427885356  0.3594455716986400  0.2705399782468822
  0.7127914553253034  0.8102335174543545  0.1423748812811502
  0.6405249486906226  0.7118466482257754  0.1979147150516697
  0.7508580294163560  0.6842737425027167  0.1329887669968747
  0.7326028907631853  0.8114161478517136  0.3339462247112545
  0.7792158200878510  0.6788495091203846  0.3213315678955784
  0.8535967618138139  0.7863681023384645  0.2644189331017547
  0.6282506336799730  0.2520201186888282  0.2023924368990990
  0.6522298643529847  0.2765096702918950  0.3301246402172171
  0.6667817240947743  0.1556537985562252  0.2783113413702071
  0.7948232190302638  0.3465866949062776  0.2141628452447822
  0.8392453627735239  0.2479842230070700  0.3012236356447253
  0.8129893911903858  0.2137678513293720  0.1666162983882251
 
  0.00000000E+00  0.00000000E+00  0.00000000E+00
  0.00000000E+00  0.00000000E+00  0.00000000E+00
  0.00000000E+00  0.00000000E+00  0.00000000E+00
  0.00000000E+00  0.00000000E+00  0.00000000E+00
  0.00000000E+00  0.00000000E+00  0.00000000E+00
  0.00000000E+00  0.00000000E+00  0.00000000E+00
  0.00000000E+00  0.00000000E+00  0.00000000E+00
  0.00000000E+00  0.00000000E+00  0.00000000E+00
  0.00000000E+00  0.00000000E+00  0.00000000E+00
  0.00000000E+00  0.00000000E+00  0.00000000E+00
  0.00000000E+00  0.00000000E+00  0.00000000E+00
  0.00000000E+00  0.00000000E+00  0.00000000E+00
  0.00000000E+00  0.00000000E+00  0.00000000E+00
  0.00000000E+00  0.00000000E+00  0.00000000E+00
  0.00000000E+00  0.00000000E+00  0.00000000E+00
  0.00000000E+00  0.00000000E+00  0.00000000E+00
  0.00000000E+00  0.00000000E+00  0.00000000E+00
  0.00000000E+00  0.00000000E+00  0.00000000E+00
  0.00000000E+00  0.00000000E+00  0.00000000E+00
  0.00000000E+00  0.00000000E+00  0.00000000E+00
  0.00000000E+00  0.00000000E+00  0.00000000E+00
  0.00000000E+00  0.00000000E+00  0.00000000E+00
  0.00000000E+00  0.00000000E+00  0.00000000E+00
  0.00000000E+00  0.00000000E+00  0.00000000E+00
  0.00000000E+00  0.00000000E+00  0.00000000E+00
  0.00000000E+00  0.00000000E+00  0.00000000E+00
  0.00000000E+00  0.00000000E+00  0.00000000E+00
  0.00000000E+00  0.00000000E+00  0.00000000E+00
  0.00000000E+00  0.00000000E+00  0.00000000E+00
  0.00000000E+00  0.00000000E+00  0.00000000E+00
  0.00000000E+00  0.00000000E+00  0.00000000E+00
  0.00000000E+00  0.00000000E+00  0.00000000E+00
  0.00000000E+00  0.00000000E+00  0.00000000E+00
  0.00000000E+00  0.00000000E+00  0.00000000E+00
  0.00000000E+00  0.00000000E+00  0.00000000E+00
  0.00000000E+00  0.00000000E+00  0.00000000E+00
  0.00000000E+00  0.00000000E+00  0.00000000E+00
  0.00000000E+00  0.00000000E+00  0.00000000E+00
  0.00000000E+00  0.00000000E+00  0.00000000E+00
  0.00000000E+00  0.00000000E+00  0.00000000E+00
  0.00000000E+00  0.00000000E+00  0.00000000E+00
  0.00000000E+00  0.00000000E+00  0.00000000E+00
  0.00000000E+00  0.00000000E+00  0.00000000E+00
  0.00000000E+00  0.00000000E+00  0.00000000E+00
  0.00000000E+00  0.00000000E+00  0.00000000E+00
  0.00000000E+00  0.00000000E+00  0.00000000E+00
  0.00000000E+00  0.00000000E+00  0.00000000E+00
  0.00000000E+00  0.00000000E+00  0.00000000E+00
  0.00000000E+00  0.00000000E+00  0.00000000E+00
  0.00000000E+00  0.00000000E+00  0.00000000E+00
  0.00000000E+00  0.00000000E+00  0.00000000E+00
  0.00000000E+00  0.00000000E+00  0.00000000E+00
  0.00000000E+00  0.00000000E+00  0.00000000E+00
  0.00000000E+00  0.00000000E+00  0.00000000E+00
  0.00000000E+00  0.00000000E+00  0.00000000E+00
  0.00000000E+00  0.00000000E+00  0.00000000E+00
  0.00000000E+00  0.00000000E+00  0.00000000E+00
  0.00000000E+00  0.00000000E+00  0.00000000E+00
  0.00000000E+00  0.00000000E+00  0.00000000E+00
  0.00000000E+00  0.00000000E+00  0.00000000E+00
  0.00000000E+00  0.00000000E+00  0.00000000E+00
  0.00000000E+00  0.00000000E+00  0.00000000E+00
  0.00000000E+00  0.00000000E+00  0.00000000E+00
  0.00000000E+00  0.00000000E+00  0.00000000E+00
  0.00000000E+00  0.00000000E+00  0.00000000E+00
  0.00000000E+00  0.00000000E+00  0.00000000E+00
  0.00000000E+00  0.00000000E+00  0.00000000E+00
  0.00000000E+00  0.00000000E+00  0.00000000E+00
  0.00000000E+00  0.00000000E+00  0.00000000E+00
  0.00000000E+00  0.00000000E+00  0.00000000E+00
  0.00000000E+00  0.00000000E+00  0.00000000E+00
  0.00000000E+00  0.00000000E+00  0.00000000E+00
  0.00000000E+00  0.00000000E+00  0.00000000E+00
  0.00000000E+00  0.00000000E+00  0.00000000E+00
  0.00000000E+00  0.00000000E+00  0.00000000E+00
  0.00000000E+00  0.00000000E+00  0.00000000E+00
  0.00000000E+00  0.00000000E+00  0.00000000E+00
  0.00000000E+00  0.00000000E+00  0.00000000E+00
  0.00000000E+00  0.00000000E+00  0.00000000E+00
  0.00000000E+00  0.00000000E+00  0.00000000E+00
  0.00000000E+00  0.00000000E+00  0.00000000E+00
  0.00000000E+00  0.00000000E+00  0.00000000E+00
  0.00000000E+00  0.00000000E+00  0.00000000E+00
  0.00000000E+00  0.00000000E+00  0.00000000E+00
  0.00000000E+00  0.00000000E+00  0.00000000E+00
  0.00000000E+00  0.00000000E+00  0.00000000E+00
  0.00000000E+00  0.00000000E+00  0.00000000E+00
  0.00000000E+00  0.00000000E+00  0.00000000E+00
  0.00000000E+00  0.00000000E+00  0.00000000E+00
  0.00000000E+00  0.00000000E+00  0.00000000E+00
  0.00000000E+00  0.00000000E+00  0.00000000E+00
  0.00000000E+00  0.00000000E+00  0.00000000E+00
  0.00000000E+00  0.00000000E+00  0.00000000E+00
  0.00000000E+00  0.00000000E+00  0.00000000E+00
  0.00000000E+00  0.00000000E+00  0.00000000E+00
  0.00000000E+00  0.00000000E+00  0.00000000E+00
