ortho_FA0250MA0250Cs0500                
   1.00000000000000     
    11.0343586066201400   -0.0484802294976264   -0.0655686180378101
    -0.0447516549903305    9.7210075408756182   -0.0227673617556449
    -0.1091771272791984   -0.0418846569257637   18.4691664460383045
   Pb   I    Cs   C    N    H 
     8    24     4     4     6    22
Direct
  0.1533558387240492  0.1221608972105868  0.4443946016833408
  0.1619531298638510  0.6288589687620444  0.4372761135836665
  0.8459176647178396  0.3737507039231908  0.5573218125771954
  0.8301514160055679  0.8685986817831396  0.5505222682082058
  0.3464208689232818  0.3738752173412375  0.9369073667036685
  0.3525216935771079  0.8609011202142253  0.9403568942748982
  0.6722012702902699  0.1238608503903802  0.0482613988622413
  0.6755103680074687  0.6260870169725462  0.0558013582670093
  0.1848757408155332  0.1183757308996913  0.0052878065624553
  0.1738098106619416  0.6226739442853498 -0.0016620605714794
  0.8406411678181163  0.3810108927372052  0.9938397701196510
  0.8348375430768996  0.8705214511071325  0.9879489525983365
  0.3165137102197251  0.3771626682345313  0.5059339571749778
  0.3327841233845344  0.8802289120925519  0.5028025718189443
  0.6770741492723920  0.1335205653112893  0.4879367862784340
  0.6593202656590541  0.6018569384567227  0.4978133516838865
  0.2716988249464037  0.1469188381073955  0.2914338765629526
  0.2960514639083250  0.6213288812731761  0.2901828491396275
  0.7112441772232878  0.4157293178344408  0.7029213455999332
  0.6911012838526371  0.8603482274383784  0.6937052139803095
  0.2182787911612515  0.3704110153412770  0.7855259337882508
  0.2277946260436198  0.8253587087506186  0.7851105455704878
  0.8190778078993710  0.1156758874095314  0.1916127622529084
  0.8328389634551535  0.6300230578344309  0.1961386540003427
  0.0213344261236169  0.1059324739100182  0.6103803340628209
  0.0229519566099904  0.6375833458533691  0.6026899595840208
  0.9753123317587435  0.3765546865129229  0.3922149145421955
  0.9792232839730183  0.8735500874600192  0.3858616212899972
  0.4865227845613213  0.3685299228781267  0.1003062273173290
  0.4848553990209096  0.8746979947450714  0.1003779422835161
  0.5216809294095799  0.1241269402113414  0.8824121926569108
  0.5337811538681184  0.6198135019753385  0.8903608996778708
  0.4210367949095569  0.6089039584359847  0.6636554869812402
  0.0883068844774561  0.3787699815153773  0.1639558309503339
  0.1011753338622537  0.8737282305490892  0.1679552862601456
  0.9296778192732953  0.6250733585011441  0.8242979745113551
  0.5689181799944901  0.8779406166813717  0.3329899007535050
  0.9148333141261544  0.1322952954723027  0.8391913173081652
  0.6163469345276459  0.3846433108572293  0.3028216883844914
  0.4624944535085455  0.1593046602445609  0.6525980509108402
  0.6648504195550278  0.7991996105501967  0.3366628037915190
  0.5552321496398381  0.9784813456878555  0.2865316257977759
  0.0204676613864724  0.0715330855562067  0.8397752126494187
  0.8385247985982005  0.1323029413757170  0.7843902575667359
  0.5281678132750369  0.3684142671411811  0.3625515179174026
  0.3701186002898440  0.0886995778927485  0.6973871272319659
  0.4957716801776608  0.8586326332366602  0.3712421100314100
  0.6715435261553181  0.7276211902465397  0.3771664651030145
  0.7352915180951886  0.8066917799191379  0.3013823811170239
  0.6221408767919472  0.0049935981735480  0.2507180419736355
  0.4739479428110679  0.0296431065896544  0.2844400643136564
  0.8889863085958490  0.1880065789526616  0.8880724498589663
  0.0743350692271358  0.0795910224159121  0.8853918415937674
  0.0559521267605929  0.0205839804041009  0.7963690184611893
  0.8552018233139452  0.0835565868118416  0.7363387682443275
  0.7607872481242690  0.1884377759830646  0.7863666690633901
  0.4390612501756184  0.3644596114032498  0.3437407151585349
  0.5355671626944014  0.4490996738700496  0.3996244738743386
  0.5450266730712905  0.2798828393935528  0.3925206649172445
  0.5992834188600291  0.4818969554865090  0.2751827140650567
  0.7083452890957946  0.3838377170119770  0.3256898830541762
  0.6046624182260738  0.2994772039864581  0.2644335387629406
  0.2828994497643801  0.1013355307344048  0.6771940593148895
  0.3705117719727152  0.1269074046143176  0.7501270577365418
  0.3837806457588346  0.9837235896946955  0.7014883479513860
  0.4441788729110546  0.2694648773261323  0.6538451341035518
  0.5523001997694112  0.1388340557128608  0.6754889732110052
  0.4561984580536969  0.1201754658584314  0.5970559128541340
 
  0.00000000E+00  0.00000000E+00  0.00000000E+00
  0.00000000E+00  0.00000000E+00  0.00000000E+00
  0.00000000E+00  0.00000000E+00  0.00000000E+00
  0.00000000E+00  0.00000000E+00  0.00000000E+00
  0.00000000E+00  0.00000000E+00  0.00000000E+00
  0.00000000E+00  0.00000000E+00  0.00000000E+00
  0.00000000E+00  0.00000000E+00  0.00000000E+00
  0.00000000E+00  0.00000000E+00  0.00000000E+00
  0.00000000E+00  0.00000000E+00  0.00000000E+00
  0.00000000E+00  0.00000000E+00  0.00000000E+00
  0.00000000E+00  0.00000000E+00  0.00000000E+00
  0.00000000E+00  0.00000000E+00  0.00000000E+00
  0.00000000E+00  0.00000000E+00  0.00000000E+00
  0.00000000E+00  0.00000000E+00  0.00000000E+00
  0.00000000E+00  0.00000000E+00  0.00000000E+00
  0.00000000E+00  0.00000000E+00  0.00000000E+00
  0.00000000E+00  0.00000000E+00  0.00000000E+00
  0.00000000E+00  0.00000000E+00  0.00000000E+00
  0.00000000E+00  0.00000000E+00  0.00000000E+00
  0.00000000E+00  0.00000000E+00  0.00000000E+00
  0.00000000E+00  0.00000000E+00  0.00000000E+00
  0.00000000E+00  0.00000000E+00  0.00000000E+00
  0.00000000E+00  0.00000000E+00  0.00000000E+00
  0.00000000E+00  0.00000000E+00  0.00000000E+00
  0.00000000E+00  0.00000000E+00  0.00000000E+00
  0.00000000E+00  0.00000000E+00  0.00000000E+00
  0.00000000E+00  0.00000000E+00  0.00000000E+00
  0.00000000E+00  0.00000000E+00  0.00000000E+00
  0.00000000E+00  0.00000000E+00  0.00000000E+00
  0.00000000E+00  0.00000000E+00  0.00000000E+00
  0.00000000E+00  0.00000000E+00  0.00000000E+00
  0.00000000E+00  0.00000000E+00  0.00000000E+00
  0.00000000E+00  0.00000000E+00  0.00000000E+00
  0.00000000E+00  0.00000000E+00  0.00000000E+00
  0.00000000E+00  0.00000000E+00  0.00000000E+00
  0.00000000E+00  0.00000000E+00  0.00000000E+00
  0.00000000E+00  0.00000000E+00  0.00000000E+00
  0.00000000E+00  0.00000000E+00  0.00000000E+00
  0.00000000E+00  0.00000000E+00  0.00000000E+00
  0.00000000E+00  0.00000000E+00  0.00000000E+00
  0.00000000E+00  0.00000000E+00  0.00000000E+00
  0.00000000E+00  0.00000000E+00  0.00000000E+00
  0.00000000E+00  0.00000000E+00  0.00000000E+00
  0.00000000E+00  0.00000000E+00  0.00000000E+00
  0.00000000E+00  0.00000000E+00  0.00000000E+00
  0.00000000E+00  0.00000000E+00  0.00000000E+00
  0.00000000E+00  0.00000000E+00  0.00000000E+00
  0.00000000E+00  0.00000000E+00  0.00000000E+00
  0.00000000E+00  0.00000000E+00  0.00000000E+00
  0.00000000E+00  0.00000000E+00  0.00000000E+00
  0.00000000E+00  0.00000000E+00  0.00000000E+00
  0.00000000E+00  0.00000000E+00  0.00000000E+00
  0.00000000E+00  0.00000000E+00  0.00000000E+00
  0.00000000E+00  0.00000000E+00  0.00000000E+00
  0.00000000E+00  0.00000000E+00  0.00000000E+00
  0.00000000E+00  0.00000000E+00  0.00000000E+00
  0.00000000E+00  0.00000000E+00  0.00000000E+00
  0.00000000E+00  0.00000000E+00  0.00000000E+00
  0.00000000E+00  0.00000000E+00  0.00000000E+00
  0.00000000E+00  0.00000000E+00  0.00000000E+00
  0.00000000E+00  0.00000000E+00  0.00000000E+00
  0.00000000E+00  0.00000000E+00  0.00000000E+00
  0.00000000E+00  0.00000000E+00  0.00000000E+00
  0.00000000E+00  0.00000000E+00  0.00000000E+00
  0.00000000E+00  0.00000000E+00  0.00000000E+00
  0.00000000E+00  0.00000000E+00  0.00000000E+00
  0.00000000E+00  0.00000000E+00  0.00000000E+00
  0.00000000E+00  0.00000000E+00  0.00000000E+00
