cubic_FA0125MA0625Cs0250                
   1.00000000000000     
    12.6838944501270703   -0.0217250168581644    0.1030860702346408
    -0.0201208937569313   12.7141077370343591   -0.1075711062856406
     0.1016319881268475   -0.1084793892528789   12.6705891621865536
   Cs   I    Pb   C    N    H 
     2    24     8     6     7    35
Direct
  0.7546163222946854  0.2245683385744513  0.2646765619122233
  0.7488439090285540  0.2334750242768797  0.7684201345318379
  0.0114949044380416  0.0036236995599771  0.2653604020403524
 -0.0059193155153060  0.0010281249174059  0.7642742945013464
  0.9498198469114058  0.4784538924762275  0.2648621444296280
  0.0569490145879493  0.4959475091612111  0.7616264327461915
  0.5146543070865354 -0.0077532047448098  0.2706484981554989
  0.5308257069780630  0.9852212079762638  0.7690727303558889
  0.5627913211576806  0.4886569613219284  0.2668322448810487
  0.4592665618899360  0.4923278287353676  0.7669909854076336
  0.9494386820424695  0.2484042197120538  0.0082830344586773
  0.0102460760345280  0.2465371051290650  0.5126412400183989
  0.0157500176458215  0.7477957844844130  0.0196767010431031
  0.9845564284373738  0.7463756200533708  0.5177082912528415
  0.5474649255090570  0.2468717127407670  0.0202856081117239
  0.4974786535632953  0.2461684945940689  0.5330251151582641
  0.4778600587515675  0.7464861515031479  0.0240338960975545
  0.4966386890570855  0.7463351891797620  0.5125613244807857
  0.2548806240610403  0.5115433335601038  0.4811447204040351
  0.2519069460435822  0.4774842095854968  0.0588459560296216
  0.2539969281374343  0.9973081658570470  0.5322601206998637
  0.2539869818754970  0.0350842091808421  0.0196034079980444
  0.7541358034087832  0.4844495759787400  0.5740640690801994
  0.7525362001055828  0.5285908088884682 -0.0196855689985605
  0.7545049839419007  0.0148229184041492  0.5166028660874492
  0.7528276493311581  0.9745306357932841  0.0333465167546365
  0.5010415081719346  0.0001962085506136  0.0139546331890428
  0.5034168186046871  0.9964783984118727  0.5206035706071078
  0.5026527555893614  0.4944697441906160  0.0107273482562470
  0.5062422777334058  0.4957247869508720  0.5100764789798536
  0.0033248632920713  0.0030356264688410  0.0118785269148774
  0.0026541485642962 -0.0040211354423857  0.5136497141213321
  0.0026206737986561  0.4951930975562200  0.0100149659274840
  0.0004498802620486  0.4965628929776996  0.5094679955894231
  0.2480693390160191  0.2226796668184176  0.2847668051356614
  0.2521663365693341  0.2371249384468485  0.7832069694161639
  0.2627908813511822  0.7516682604011886  0.7795127848720926
  0.7658031925619260  0.7583691987408945  0.7761907032593663
  0.2440488634006263  0.7469517451337347  0.2810942789584926
  0.7781056248582967  0.7476763709285281  0.2831735423061498
  0.3467844293328676  0.2219392252674801  0.2511217270542597
  0.1748887282631300  0.2862035624516694  0.2513076438347669
  0.2451788075022301  0.2870312944250062  0.6779062202200633
  0.2266848160695491  0.7472137328220870  0.6680615460337002
  0.7310887986869852  0.7548208873171389  0.6644260503350052
  0.2430947981738007  0.7941828354546160  0.1744672791115847
  0.7159446761776326  0.7409824275017000  0.1845385877291346
  0.2256270167002661  0.1660795057922488  0.3454716334184895
  0.3973683885400165  0.1647296636413498  0.2759339289861653
  0.3737858754395219  0.2692091134994063  0.1917330217702213
  0.1904501031701240  0.3422712185721540  0.1950881118037423
  0.1010427084360692  0.2844777011868677  0.2845609769639046
  0.2317433509413258  0.3673355884174405  0.6857658322308544
  0.1827286920331333  0.2570275921051642  0.6340858806144550
  0.3144703781581509  0.2762497889853045  0.6335056813318247
  0.1789464693421802  0.2529038145970666  0.8277898356593482
  0.2630415069931937  0.1522957421882162  0.7718286018829492
  0.3193172052234853  0.2718450971255171  0.8247132566087988
  0.2431559331395825  0.8173487543639517  0.6290139185954016
  0.1458149715015532  0.7355163420205598  0.6625539736145016
  0.2618563898943879  0.6863062427860402  0.6245089484056898
  0.2184897820267119  0.8132456063062548  0.8223324682440706
  0.2480060086373643  0.6750126756466421  0.8152158486728950
  0.3473008758864443  0.7697672629082085  0.7797760020817367
  0.6504022797411017  0.7659583921765196  0.6568987710620229
  0.7478949657271909  0.6815155263953246  0.6292502225181089
  0.7679032291581460  0.8122177563886588  0.6195728398894291
  0.7267903098253703  0.6944947391740499  0.8189481177598396
  0.8515282527663113  0.7475412843160879  0.7773914876190643
  0.7444992336248368  0.8346287298011879  0.8116652257954314
  0.2417861203963631  0.8757331258112908  0.1767483004845365
  0.1765469223617248  0.7709017495763628  0.1316390343566815
  0.3099294684334051  0.7724734506893546  0.1296739304911845
  0.1733579426861108  0.7722395941234520  0.3253966588743873
  0.2444673347631560  0.6611729034128021  0.2718927804442814
  0.3150660155949037  0.7732813249528436  0.3222338863197867
  0.7237608880809457  0.8100016660470553  0.1406550677207998
  0.6362479867710435  0.7299191214123720  0.1993184709608233
  0.7397598278774088  0.6786944073460205  0.1350474997324864
  0.7469975782935450  0.8121732678344862  0.3329664258055200
  0.7713117548636659  0.6726245748451484  0.3240338812035725
  0.8607460285162111  0.7632816341075611  0.2620600114775672
 
  0.00000000E+00  0.00000000E+00  0.00000000E+00
  0.00000000E+00  0.00000000E+00  0.00000000E+00
  0.00000000E+00  0.00000000E+00  0.00000000E+00
  0.00000000E+00  0.00000000E+00  0.00000000E+00
  0.00000000E+00  0.00000000E+00  0.00000000E+00
  0.00000000E+00  0.00000000E+00  0.00000000E+00
  0.00000000E+00  0.00000000E+00  0.00000000E+00
  0.00000000E+00  0.00000000E+00  0.00000000E+00
  0.00000000E+00  0.00000000E+00  0.00000000E+00
  0.00000000E+00  0.00000000E+00  0.00000000E+00
  0.00000000E+00  0.00000000E+00  0.00000000E+00
  0.00000000E+00  0.00000000E+00  0.00000000E+00
  0.00000000E+00  0.00000000E+00  0.00000000E+00
  0.00000000E+00  0.00000000E+00  0.00000000E+00
  0.00000000E+00  0.00000000E+00  0.00000000E+00
  0.00000000E+00  0.00000000E+00  0.00000000E+00
  0.00000000E+00  0.00000000E+00  0.00000000E+00
  0.00000000E+00  0.00000000E+00  0.00000000E+00
  0.00000000E+00  0.00000000E+00  0.00000000E+00
  0.00000000E+00  0.00000000E+00  0.00000000E+00
  0.00000000E+00  0.00000000E+00  0.00000000E+00
  0.00000000E+00  0.00000000E+00  0.00000000E+00
  0.00000000E+00  0.00000000E+00  0.00000000E+00
  0.00000000E+00  0.00000000E+00  0.00000000E+00
  0.00000000E+00  0.00000000E+00  0.00000000E+00
  0.00000000E+00  0.00000000E+00  0.00000000E+00
  0.00000000E+00  0.00000000E+00  0.00000000E+00
  0.00000000E+00  0.00000000E+00  0.00000000E+00
  0.00000000E+00  0.00000000E+00  0.00000000E+00
  0.00000000E+00  0.00000000E+00  0.00000000E+00
  0.00000000E+00  0.00000000E+00  0.00000000E+00
  0.00000000E+00  0.00000000E+00  0.00000000E+00
  0.00000000E+00  0.00000000E+00  0.00000000E+00
  0.00000000E+00  0.00000000E+00  0.00000000E+00
  0.00000000E+00  0.00000000E+00  0.00000000E+00
  0.00000000E+00  0.00000000E+00  0.00000000E+00
  0.00000000E+00  0.00000000E+00  0.00000000E+00
  0.00000000E+00  0.00000000E+00  0.00000000E+00
  0.00000000E+00  0.00000000E+00  0.00000000E+00
  0.00000000E+00  0.00000000E+00  0.00000000E+00
  0.00000000E+00  0.00000000E+00  0.00000000E+00
  0.00000000E+00  0.00000000E+00  0.00000000E+00
  0.00000000E+00  0.00000000E+00  0.00000000E+00
  0.00000000E+00  0.00000000E+00  0.00000000E+00
  0.00000000E+00  0.00000000E+00  0.00000000E+00
  0.00000000E+00  0.00000000E+00  0.00000000E+00
  0.00000000E+00  0.00000000E+00  0.00000000E+00
  0.00000000E+00  0.00000000E+00  0.00000000E+00
  0.00000000E+00  0.00000000E+00  0.00000000E+00
  0.00000000E+00  0.00000000E+00  0.00000000E+00
  0.00000000E+00  0.00000000E+00  0.00000000E+00
  0.00000000E+00  0.00000000E+00  0.00000000E+00
  0.00000000E+00  0.00000000E+00  0.00000000E+00
  0.00000000E+00  0.00000000E+00  0.00000000E+00
  0.00000000E+00  0.00000000E+00  0.00000000E+00
  0.00000000E+00  0.00000000E+00  0.00000000E+00
  0.00000000E+00  0.00000000E+00  0.00000000E+00
  0.00000000E+00  0.00000000E+00  0.00000000E+00
  0.00000000E+00  0.00000000E+00  0.00000000E+00
  0.00000000E+00  0.00000000E+00  0.00000000E+00
  0.00000000E+00  0.00000000E+00  0.00000000E+00
  0.00000000E+00  0.00000000E+00  0.00000000E+00
  0.00000000E+00  0.00000000E+00  0.00000000E+00
  0.00000000E+00  0.00000000E+00  0.00000000E+00
  0.00000000E+00  0.00000000E+00  0.00000000E+00
  0.00000000E+00  0.00000000E+00  0.00000000E+00
  0.00000000E+00  0.00000000E+00  0.00000000E+00
  0.00000000E+00  0.00000000E+00  0.00000000E+00
  0.00000000E+00  0.00000000E+00  0.00000000E+00
  0.00000000E+00  0.00000000E+00  0.00000000E+00
  0.00000000E+00  0.00000000E+00  0.00000000E+00
  0.00000000E+00  0.00000000E+00  0.00000000E+00
  0.00000000E+00  0.00000000E+00  0.00000000E+00
  0.00000000E+00  0.00000000E+00  0.00000000E+00
  0.00000000E+00  0.00000000E+00  0.00000000E+00
  0.00000000E+00  0.00000000E+00  0.00000000E+00
  0.00000000E+00  0.00000000E+00  0.00000000E+00
  0.00000000E+00  0.00000000E+00  0.00000000E+00
  0.00000000E+00  0.00000000E+00  0.00000000E+00
  0.00000000E+00  0.00000000E+00  0.00000000E+00
  0.00000000E+00  0.00000000E+00  0.00000000E+00
  0.00000000E+00  0.00000000E+00  0.00000000E+00
