hexa_FA1000MA0000Cs0000                 
   1.00000000000000     
    19.1496954784787548   -0.0022042227489828   -0.0000008852154566
    -9.5765442533250216   14.5713160418286751    0.0000004471177777
    -0.0000003634710078   -0.0000000105635733    7.7228673429456025
   Pb   I    N    C    H 
     8    24    16     8    40
Direct
  0.4999611485786464  0.4999220618931308  0.9391908582643271
  0.4999611526858376  0.9999220614063514  0.9391908585327328
  0.9999611491059477  0.4999220659624916  0.9391908612047050
  0.9999611504863394  0.9999220609859870  0.9391908609655938
  0.0000388559050166  0.0000779346203379  0.4391908689165833
  0.0000388547830778  0.5000779375502309  0.4391908706783218
  0.5000388574921569  0.0000779350020263  0.4391908740195440
  0.5000388534536520  0.5000779333304832  0.4391908746508079
  0.4200853882078318  0.0815289798381793  0.1890536834822303
  0.4200853782722038  0.5815289600217723  0.1890536600696850
  0.9200853824273240  0.0815289603598184  0.1890536909329569
  0.9200853725186744  0.5815289684710452  0.1890536681929903
  0.4111438881004261  0.3222741219770102  0.1897076162687938
  0.4111439138551728  0.8222741215105801  0.1897076075811180
  0.9111438992080421  0.3222741289183705  0.1897076114778204
  0.9111438678843441  0.8222741155449911  0.1897076088677890
  0.1614459177544945  0.0815332974773972  0.1890564065396345
  0.1614459272136992  0.5815333039642692  0.1890564049130045
  0.6614459271302805  0.0815332934094850  0.1890564006000488
  0.6614459226432643  0.5815333097990990  0.1890563937474728
  0.0799146178903972  0.4184710249855694  0.6890537329847497
  0.0799146260122459  0.9184710331358886  0.6890537249905136
  0.5799146313178484  0.4184710408516434  0.6890537188581328
  0.5799146114350395  0.9184710150308097  0.6890537140428250
  0.0888561197402630  0.1777259064857843  0.6897076316856330
  0.0888560931878614  0.6777259075813016  0.6897076181042043
  0.5888561101959912  0.1777259019541945  0.6897076472239088
  0.5888561141673018  0.6777258974583145  0.6897076325022936
  0.3385541080686772  0.4184667001149747  0.6890563161417610
  0.3385541061438398  0.9184667123095451  0.6890562914925393
  0.8385540996163731  0.4184667067713514  0.6890563201696053
  0.8385540958455006  0.9184666900362943  0.6890563101149555
  0.2206524359040589  0.3195570283381015  0.1864186702205627
  0.2206524501543417  0.8195570242488528  0.1864186655789010
  0.7206524521191083  0.3195570282128686  0.1864186698847709
  0.7206524554035590  0.8195570326903208  0.1864186672425289
  0.0989243275491598  0.3195525598802899  0.1864429240665363
  0.0989243461526162  0.8195525651406511  0.1864428936493097
  0.5989243501744771  0.3195525700026856  0.1864429130060828
  0.5989243527478738  0.8195525699086943  0.1864429019134728
  0.2793475934951719  0.1804429333539643  0.6864191023881621
  0.2793475893875681  0.6804429374913316  0.6864190891730917
  0.7793475850939002  0.1804429329763281  0.6864190923847254
  0.7793475875027199  0.6804429267977268  0.6864190880230302
  0.4010757387297097  0.1804474622451292  0.6864424201912316
  0.4010757378587493  0.6804474643600312  0.6864424021718992
  0.9010757346462210  0.1804474659080413  0.6864424234911942
  0.9010757311663961  0.6804474528639484  0.6864424176986429
  0.1805258122539780  0.3610315580278206  0.1862539734209218
  0.1805258233818889  0.8610315562980760  0.1862539569846246
  0.6805258200655371  0.3610315591102684  0.1862539683617575
  0.6805258253158194  0.8610315634454562  0.1862539590621231
  0.3194740523874485  0.1389684209139455  0.6862539293683092
  0.3194740367980297  0.6389684208273879  0.6862539152621634
  0.8194740298689407  0.1389684210588041  0.6862539279642442
  0.8194740308014921  0.6389684135961683  0.6862539218867577
  0.2181177271018748  0.4361902046608418  0.1859523305367720
  0.2181177393717735  0.9361902037640857  0.1859523198411426
  0.7181177463702453  0.4361902101410122  0.1859523269118375
  0.7181177449800907  0.9361902152901460  0.1859523154882991
  0.2818822486455781  0.0638097831892565  0.6859522879824724
  0.2818822510080498  0.5638097931455811  0.6859522805051538
  0.7818822500802238  0.0638097895069409  0.6859522903943635
  0.7818822463427747  0.5638097773061505  0.6859522850749805
  0.1914604931816171  0.2493161741767453  0.1867575974891083
  0.1914605035275935  0.7493161701832342  0.1867575985063067
  0.6914604992755250  0.2493161703012632  0.1867575978073898
  0.6914604978590461  0.7493161731478835  0.1867576004466311
  0.2846164138338051  0.3570691893659918  0.1864168474084575
  0.2846164244159481  0.8570691839783650  0.1864168439481960
  0.7846164250692983  0.3570691897418551  0.1864168483770059
  0.7846164294501186  0.8570691898968591  0.1864168447537252
  0.0724757555641683  0.3570614658556696  0.1864276677955560
  0.0724757762399207  0.8570614757370724  0.1864276652395404
  0.5724757766746528  0.3570614785181178  0.1864276652550857
  0.5724757746370571  0.8570614732069605  0.1864276647983860
  0.0578486432743832  0.2493084280586053  0.1867614928355205
  0.0578486530660840  0.7493084337436539  0.1867614861367506
  0.5578486563080544  0.2493084319727171  0.1867614903976798
  0.5578486636266111  0.7493084304524421  0.1867614886460954
  0.3085395038801081  0.2506838398005851  0.6867578038143131
  0.3085394840514783  0.7506838341722575  0.6867578002540300
  0.8085394869926708  0.2506838364304509  0.6867577999707741
  0.8085394951461902  0.7506838346870982  0.6867577998423871
  0.2153835644252060  0.1429307999572005  0.6864171219509982
  0.2153835567731390  0.6429308055164966  0.6864171226235674
  0.7153835505400707  0.1429308056619434  0.6864171205465217
  0.7153835537085421  0.6429307987174486  0.6864171212963595
  0.4275242020369624  0.1429385142909671  0.6864273713285469
  0.4275241940345058  0.6429385120926910  0.6864273661077080
  0.9275241867508043  0.1429385111276069  0.6864273743086868
  0.9275241870997751  0.6429385004980314  0.6864273690931000
  0.4421513099687704  0.2506915380699551  0.6867612807360389
  0.4421513132892951  0.7506915253238842  0.6867612776893001
  0.9421513084775593  0.2506915296321335  0.6867612812090738
  0.9421513026338918  0.7506915222242471  0.6867612810396628
 
  0.00000000E+00  0.00000000E+00  0.00000000E+00
  0.00000000E+00  0.00000000E+00  0.00000000E+00
  0.00000000E+00  0.00000000E+00  0.00000000E+00
  0.00000000E+00  0.00000000E+00  0.00000000E+00
  0.00000000E+00  0.00000000E+00  0.00000000E+00
  0.00000000E+00  0.00000000E+00  0.00000000E+00
  0.00000000E+00  0.00000000E+00  0.00000000E+00
  0.00000000E+00  0.00000000E+00  0.00000000E+00
  0.00000000E+00  0.00000000E+00  0.00000000E+00
  0.00000000E+00  0.00000000E+00  0.00000000E+00
  0.00000000E+00  0.00000000E+00  0.00000000E+00
  0.00000000E+00  0.00000000E+00  0.00000000E+00
  0.00000000E+00  0.00000000E+00  0.00000000E+00
  0.00000000E+00  0.00000000E+00  0.00000000E+00
  0.00000000E+00  0.00000000E+00  0.00000000E+00
  0.00000000E+00  0.00000000E+00  0.00000000E+00
  0.00000000E+00  0.00000000E+00  0.00000000E+00
  0.00000000E+00  0.00000000E+00  0.00000000E+00
  0.00000000E+00  0.00000000E+00  0.00000000E+00
  0.00000000E+00  0.00000000E+00  0.00000000E+00
  0.00000000E+00  0.00000000E+00  0.00000000E+00
  0.00000000E+00  0.00000000E+00  0.00000000E+00
  0.00000000E+00  0.00000000E+00  0.00000000E+00
  0.00000000E+00  0.00000000E+00  0.00000000E+00
  0.00000000E+00  0.00000000E+00  0.00000000E+00
  0.00000000E+00  0.00000000E+00  0.00000000E+00
  0.00000000E+00  0.00000000E+00  0.00000000E+00
  0.00000000E+00  0.00000000E+00  0.00000000E+00
  0.00000000E+00  0.00000000E+00  0.00000000E+00
  0.00000000E+00  0.00000000E+00  0.00000000E+00
  0.00000000E+00  0.00000000E+00  0.00000000E+00
  0.00000000E+00  0.00000000E+00  0.00000000E+00
  0.00000000E+00  0.00000000E+00  0.00000000E+00
  0.00000000E+00  0.00000000E+00  0.00000000E+00
  0.00000000E+00  0.00000000E+00  0.00000000E+00
  0.00000000E+00  0.00000000E+00  0.00000000E+00
  0.00000000E+00  0.00000000E+00  0.00000000E+00
  0.00000000E+00  0.00000000E+00  0.00000000E+00
  0.00000000E+00  0.00000000E+00  0.00000000E+00
  0.00000000E+00  0.00000000E+00  0.00000000E+00
  0.00000000E+00  0.00000000E+00  0.00000000E+00
  0.00000000E+00  0.00000000E+00  0.00000000E+00
  0.00000000E+00  0.00000000E+00  0.00000000E+00
  0.00000000E+00  0.00000000E+00  0.00000000E+00
  0.00000000E+00  0.00000000E+00  0.00000000E+00
  0.00000000E+00  0.00000000E+00  0.00000000E+00
  0.00000000E+00  0.00000000E+00  0.00000000E+00
  0.00000000E+00  0.00000000E+00  0.00000000E+00
  0.00000000E+00  0.00000000E+00  0.00000000E+00
  0.00000000E+00  0.00000000E+00  0.00000000E+00
  0.00000000E+00  0.00000000E+00  0.00000000E+00
  0.00000000E+00  0.00000000E+00  0.00000000E+00
  0.00000000E+00  0.00000000E+00  0.00000000E+00
  0.00000000E+00  0.00000000E+00  0.00000000E+00
  0.00000000E+00  0.00000000E+00  0.00000000E+00
  0.00000000E+00  0.00000000E+00  0.00000000E+00
  0.00000000E+00  0.00000000E+00  0.00000000E+00
  0.00000000E+00  0.00000000E+00  0.00000000E+00
  0.00000000E+00  0.00000000E+00  0.00000000E+00
  0.00000000E+00  0.00000000E+00  0.00000000E+00
  0.00000000E+00  0.00000000E+00  0.00000000E+00
  0.00000000E+00  0.00000000E+00  0.00000000E+00
  0.00000000E+00  0.00000000E+00  0.00000000E+00
  0.00000000E+00  0.00000000E+00  0.00000000E+00
  0.00000000E+00  0.00000000E+00  0.00000000E+00
  0.00000000E+00  0.00000000E+00  0.00000000E+00
  0.00000000E+00  0.00000000E+00  0.00000000E+00
  0.00000000E+00  0.00000000E+00  0.00000000E+00
  0.00000000E+00  0.00000000E+00  0.00000000E+00
  0.00000000E+00  0.00000000E+00  0.00000000E+00
  0.00000000E+00  0.00000000E+00  0.00000000E+00
  0.00000000E+00  0.00000000E+00  0.00000000E+00
  0.00000000E+00  0.00000000E+00  0.00000000E+00
  0.00000000E+00  0.00000000E+00  0.00000000E+00
  0.00000000E+00  0.00000000E+00  0.00000000E+00
  0.00000000E+00  0.00000000E+00  0.00000000E+00
  0.00000000E+00  0.00000000E+00  0.00000000E+00
  0.00000000E+00  0.00000000E+00  0.00000000E+00
  0.00000000E+00  0.00000000E+00  0.00000000E+00
  0.00000000E+00  0.00000000E+00  0.00000000E+00
  0.00000000E+00  0.00000000E+00  0.00000000E+00
  0.00000000E+00  0.00000000E+00  0.00000000E+00
  0.00000000E+00  0.00000000E+00  0.00000000E+00
  0.00000000E+00  0.00000000E+00  0.00000000E+00
  0.00000000E+00  0.00000000E+00  0.00000000E+00
  0.00000000E+00  0.00000000E+00  0.00000000E+00
  0.00000000E+00  0.00000000E+00  0.00000000E+00
  0.00000000E+00  0.00000000E+00  0.00000000E+00
  0.00000000E+00  0.00000000E+00  0.00000000E+00
  0.00000000E+00  0.00000000E+00  0.00000000E+00
  0.00000000E+00  0.00000000E+00  0.00000000E+00
  0.00000000E+00  0.00000000E+00  0.00000000E+00
  0.00000000E+00  0.00000000E+00  0.00000000E+00
  0.00000000E+00  0.00000000E+00  0.00000000E+00
  0.00000000E+00  0.00000000E+00  0.00000000E+00
  0.00000000E+00  0.00000000E+00  0.00000000E+00
