ortho_FA0000MA0000Cs1000                
   1.00000000000000     
    10.8287144274518390   -0.0000024930699356    0.0000152348559470
     0.0000014174685063    9.7655988162665945    0.0000030177170314
    -0.0000241993255494   -0.0000075274472675   18.1889624459706347
   Pb   I    Cs
     8    24     8
Direct
  0.1630484233826146  0.1250000079981023  0.4403095560324040
  0.1630484241987854  0.6250000093150500  0.4403095570548007
  0.8369515825761110  0.3749999983766697  0.5596904361957354
  0.8369515838550881  0.8749999989279250  0.5596904336641567
  0.3369515878335609  0.3750000031914565  0.9403095558113830
  0.3369515894029123  0.8750000049197495  0.9403095534203596
  0.6630484298002339  0.1250000009448521  0.0596904502634723
  0.6630484297121272  0.6250000004902106  0.0596904533953613
  0.1638019127768429  0.1250000024987391  0.0022291816743222
  0.1638019155042663  0.6249999901894658  0.0022291729760700
  0.8361980926083646  0.3750000171877894  0.9977708208513291
  0.8361980978446877  0.8750000175761988  0.9977708217416307
  0.3361980797000095  0.3750000464195454  0.5022291682714536
  0.3361980866437954  0.8750000347049346  0.5022291715648020
  0.6638019080231569  0.1249999532273885  0.4977708259244080
  0.6638019047696433  0.6249999649750282  0.4977708278372687
  0.2942532746766572  0.1250000060898105  0.2872020463219770
  0.2942532755700319  0.6249999814279223  0.2872020410938160
  0.7057467472895492  0.3749999856797456  0.7127979598838141
  0.7057467375232453  0.8750000146929502  0.7127979456274136
  0.2057467255715021  0.3749999866922148  0.7872020525590553
  0.2057467585850435  0.8750000000393887  0.7872020540861044
  0.7942532408048081  0.1249999813048245  0.2127979551839918
  0.7942532161870967  0.6249999848601410  0.2127979600593005
  0.0258610604373123  0.1250000452347524  0.6090158916186559
  0.0258610633833536  0.6250000429471374  0.6090158879276354
  0.9741389461457545  0.3749999616908588  0.3909840898363284
  0.9741389366015354  0.8749999724742270  0.3909840904223385
  0.4741389239284337  0.3750000052430637  0.1090159033144583
  0.4741389209218039  0.8749999883538951  0.1090159000797348
  0.5258610828788295  0.1250000063629551  0.8909841043715513
  0.5258610782198289  0.6250000120693876  0.8909841152206587
  0.4230043136615816  0.1249999956839003  0.6732027428860102
  0.4230042996673556  0.6250000022063469  0.6732027532599502
  0.5769956979558907  0.3749999929272388  0.3267972585319145
  0.5769956701048339  0.8749999765697566  0.3267972481213430
  0.0769957017773576  0.3749999907022333  0.1732028033627139
  0.0769957113268847  0.8749999990870844  0.1732028016459384
  0.9230042806415094  0.1250000111979389  0.8267972060833341
  0.9230042835076436  0.6250000055191062  0.8267972078229837
 
  0.00000000E+00  0.00000000E+00  0.00000000E+00
  0.00000000E+00  0.00000000E+00  0.00000000E+00
  0.00000000E+00  0.00000000E+00  0.00000000E+00
  0.00000000E+00  0.00000000E+00  0.00000000E+00
  0.00000000E+00  0.00000000E+00  0.00000000E+00
  0.00000000E+00  0.00000000E+00  0.00000000E+00
  0.00000000E+00  0.00000000E+00  0.00000000E+00
  0.00000000E+00  0.00000000E+00  0.00000000E+00
  0.00000000E+00  0.00000000E+00  0.00000000E+00
  0.00000000E+00  0.00000000E+00  0.00000000E+00
  0.00000000E+00  0.00000000E+00  0.00000000E+00
  0.00000000E+00  0.00000000E+00  0.00000000E+00
  0.00000000E+00  0.00000000E+00  0.00000000E+00
  0.00000000E+00  0.00000000E+00  0.00000000E+00
  0.00000000E+00  0.00000000E+00  0.00000000E+00
  0.00000000E+00  0.00000000E+00  0.00000000E+00
  0.00000000E+00  0.00000000E+00  0.00000000E+00
  0.00000000E+00  0.00000000E+00  0.00000000E+00
  0.00000000E+00  0.00000000E+00  0.00000000E+00
  0.00000000E+00  0.00000000E+00  0.00000000E+00
  0.00000000E+00  0.00000000E+00  0.00000000E+00
  0.00000000E+00  0.00000000E+00  0.00000000E+00
  0.00000000E+00  0.00000000E+00  0.00000000E+00
  0.00000000E+00  0.00000000E+00  0.00000000E+00
  0.00000000E+00  0.00000000E+00  0.00000000E+00
  0.00000000E+00  0.00000000E+00  0.00000000E+00
  0.00000000E+00  0.00000000E+00  0.00000000E+00
  0.00000000E+00  0.00000000E+00  0.00000000E+00
  0.00000000E+00  0.00000000E+00  0.00000000E+00
  0.00000000E+00  0.00000000E+00  0.00000000E+00
  0.00000000E+00  0.00000000E+00  0.00000000E+00
  0.00000000E+00  0.00000000E+00  0.00000000E+00
  0.00000000E+00  0.00000000E+00  0.00000000E+00
  0.00000000E+00  0.00000000E+00  0.00000000E+00
  0.00000000E+00  0.00000000E+00  0.00000000E+00
  0.00000000E+00  0.00000000E+00  0.00000000E+00
  0.00000000E+00  0.00000000E+00  0.00000000E+00
  0.00000000E+00  0.00000000E+00  0.00000000E+00
  0.00000000E+00  0.00000000E+00  0.00000000E+00
  0.00000000E+00  0.00000000E+00  0.00000000E+00
