hexa_FA0875MA0000Cs0125                 
   1.00000000000000     
    19.0682400026387455   -0.0020689227055382   -0.0000065849257390
    -9.5357112017128323   14.5441779860157148    0.0001760751383049
    -0.0000026524026190    0.0000920346469913    7.7321110544166833
   Pb   I    N    C    H    Cs
     8    24    14     7    35     1
Direct
  0.5007467986761409  0.5014809054313450  0.9413862334774045
  0.5002242705843957  0.9985569647102268  0.9403376894425706
  0.0000200075555650  0.5000357256481520  0.9391146989404818
 -0.0016735521412092  0.9985491831575852  0.9403286726119504
 -0.0015365992228178 -0.0012998202370289  0.4378672833474228
  0.0000818763307262  0.5001596669149494  0.4390117610354654
  0.5002402695610453 -0.0012895630371194  0.4378568405606232
  0.5007750014795272  0.5015391348785807  0.4367364720709748
  0.4202647171436243  0.0799718223500918  0.1890175796463685
  0.4246796754554076  0.5866296503730090  0.1889593183572931
  0.9180088407810684  0.0809795732217666  0.1890110806484948
  0.9195335758187921  0.5814378830188633  0.1889473552230432
  0.4114531381232715  0.3228843401856543  0.1896108948387851
  0.4163595328006849  0.8220540413086823  0.1895485811852031
  0.9109523235312017  0.3218807052753282  0.1895615814958881
  0.9056935322451154  0.8220617160632343  0.1895504135221137
  0.1597217869526416  0.0799914890639238  0.1890110360702510
  0.1619378825256313  0.5814671672244921  0.1889338999525370
  0.6630260905405505  0.0810103773609035  0.1889931465748845
  0.6619958455977858  0.5866363302945923  0.1889510953699447
  0.0805386346625331  0.4187810770670634  0.6889542704542211
  0.0798703819646205  0.9187056919228326  0.6889845881567852
  0.5810729368016986  0.4192661461746155  0.6889696805728115
  0.5836662404880216  0.9183412452008154  0.6891287710206963
  0.0884509759642149  0.1774567367531404  0.6895664668518965
  0.0891400840396240  0.6782909357794575  0.6895485999481736
  0.5889855576280623  0.1774597781031166  0.6895697031201086
  0.5906257623715933  0.6812452065181833  0.6896748817711965
  0.3381699844140720  0.4192428391059135  0.6889547644450988
  0.3388210298060197  0.9186807084619489  0.6889704650901430
  0.8382179904063215  0.4187518394174892  0.6889417045373734
  0.8346384614863434  0.9183329904501022  0.6891384744548714
  0.2214282396584598  0.3204663745604068  0.1864841918566657
  0.2209840703332311  0.8196371576690084  0.1864972562937185
  0.7211862120433881  0.3202578012694784  0.1864802763189965
  0.0991157023135158  0.3202621994648935  0.1865060126403664
  0.0987013054847211  0.8196390174553257  0.1865231781557712
  0.5990721743658813  0.3204615926757545  0.1865090326299327
  0.2790444507435471  0.1804190880863389  0.6864806811582133
  0.2787606388945407  0.6797705546275072  0.6864735449582910
  0.7791228892688316  0.1805648115286007  0.6864821014007010
  0.7787580489327141  0.6796744415500057  0.6864812380828700
  0.4013366234853163  0.1804180537779491  0.6865062404705018
  0.4008882556606325  0.6796753943599826  0.6865059933781384
  0.9013994538784934  0.1805608523895903  0.6865084348459722
  0.9009836346716531  0.6797746795425998  0.6864978461186211
  0.1811027723005208  0.3619952898044552  0.1863326457560662
  0.1806620727721753  0.8612619151137770  0.1863451526805322
  0.6809547174377396  0.3619954536661710  0.1863318996168322
  0.3193918958401475  0.1388334208072894  0.6863303666380550
  0.3189792734274928  0.6381149734708305  0.6863206424493508
  0.8194770124596723  0.1390012309344424  0.6863314464874887
  0.8190850429090462  0.6381154713470076  0.6863205958390511
  0.2187386450034336  0.4372699081852220  0.1860613619026566
  0.2183234868017526  0.9365491259556579  0.1860661502605944
  0.7186181973374389  0.4372667468511093  0.1860602327280650
  0.2817295210330769  0.0635438283294938  0.6860520245694791
  0.2813815695738655  0.5628769416814828  0.6860374114056148
  0.7818133818254872  0.0637123852537129  0.6860605503631777
  0.7814181787570228  0.5628775048988992  0.6860378280868691
  0.1921713088318880  0.2501428493513820  0.1867842085317237
  0.1917765627871764  0.7492620805748773  0.1868024624115257
  0.6919135010713086  0.2499239638708955  0.1867855434992822
  0.2855568674384095  0.3581286622774020  0.1864655939534409
  0.2851093697612755  0.8572242551376712  0.1864865608492069
  0.7852872860342043  0.3577940694747853  0.1864628777114328
  0.0725602954815068  0.3577919584770503  0.1864925279760874
  0.0721772532897361  0.8572259650466010  0.1865147426797566
  0.5726262459703906  0.3581245398895739  0.1864937672881148
  0.0580277662383158  0.2499245055139467  0.1868014968446994
  0.0575022935786642  0.7492605280977983  0.1868195235994441
  0.5579848537444100  0.2501376917944821  0.1868006514466417
  0.3083106098536801  0.2508381870894115  0.6867959094742345
  0.3080271962293835  0.7501203318010149  0.6867824671316566
  0.8083322720288247  0.2509458027446424  0.6867926971512227
  0.8078854541902967  0.7499056089687135  0.6867967868170687
  0.2149138022894517  0.1428077952772605  0.6864751335215071
  0.2146957895241182  0.6422994256955741  0.6864581974276428
  0.7149937279744969  0.1429761327000314  0.6864704432112038
  0.7146748582270260  0.6419653403133916  0.6864518366008359
  0.4278460663640239  0.1428109750113643  0.6865047207938316
  0.4272496395681753  0.6419720127422310  0.6864797319755004
  0.9279314954780179  0.1429751329644041  0.6864994792686230
  0.9275618478339109  0.6423064368689385  0.6864864370709332
  0.4425205795853714  0.2508421427868502  0.6868128872131514
  0.4420178474790780  0.7499094258817165  0.6868109272181480
  0.9426069438700163  0.2509475561133175  0.6868096693376051
  0.9420907755766008  0.7501267354098334  0.6867986504303167
  0.6752397996009650  0.8505477263564726  0.1859035942722351
 
  0.00000000E+00  0.00000000E+00  0.00000000E+00
  0.00000000E+00  0.00000000E+00  0.00000000E+00
  0.00000000E+00  0.00000000E+00  0.00000000E+00
  0.00000000E+00  0.00000000E+00  0.00000000E+00
  0.00000000E+00  0.00000000E+00  0.00000000E+00
  0.00000000E+00  0.00000000E+00  0.00000000E+00
  0.00000000E+00  0.00000000E+00  0.00000000E+00
  0.00000000E+00  0.00000000E+00  0.00000000E+00
  0.00000000E+00  0.00000000E+00  0.00000000E+00
  0.00000000E+00  0.00000000E+00  0.00000000E+00
  0.00000000E+00  0.00000000E+00  0.00000000E+00
  0.00000000E+00  0.00000000E+00  0.00000000E+00
  0.00000000E+00  0.00000000E+00  0.00000000E+00
  0.00000000E+00  0.00000000E+00  0.00000000E+00
  0.00000000E+00  0.00000000E+00  0.00000000E+00
  0.00000000E+00  0.00000000E+00  0.00000000E+00
  0.00000000E+00  0.00000000E+00  0.00000000E+00
  0.00000000E+00  0.00000000E+00  0.00000000E+00
  0.00000000E+00  0.00000000E+00  0.00000000E+00
  0.00000000E+00  0.00000000E+00  0.00000000E+00
  0.00000000E+00  0.00000000E+00  0.00000000E+00
  0.00000000E+00  0.00000000E+00  0.00000000E+00
  0.00000000E+00  0.00000000E+00  0.00000000E+00
  0.00000000E+00  0.00000000E+00  0.00000000E+00
  0.00000000E+00  0.00000000E+00  0.00000000E+00
  0.00000000E+00  0.00000000E+00  0.00000000E+00
  0.00000000E+00  0.00000000E+00  0.00000000E+00
  0.00000000E+00  0.00000000E+00  0.00000000E+00
  0.00000000E+00  0.00000000E+00  0.00000000E+00
  0.00000000E+00  0.00000000E+00  0.00000000E+00
  0.00000000E+00  0.00000000E+00  0.00000000E+00
  0.00000000E+00  0.00000000E+00  0.00000000E+00
  0.00000000E+00  0.00000000E+00  0.00000000E+00
  0.00000000E+00  0.00000000E+00  0.00000000E+00
  0.00000000E+00  0.00000000E+00  0.00000000E+00
  0.00000000E+00  0.00000000E+00  0.00000000E+00
  0.00000000E+00  0.00000000E+00  0.00000000E+00
  0.00000000E+00  0.00000000E+00  0.00000000E+00
  0.00000000E+00  0.00000000E+00  0.00000000E+00
  0.00000000E+00  0.00000000E+00  0.00000000E+00
  0.00000000E+00  0.00000000E+00  0.00000000E+00
  0.00000000E+00  0.00000000E+00  0.00000000E+00
  0.00000000E+00  0.00000000E+00  0.00000000E+00
  0.00000000E+00  0.00000000E+00  0.00000000E+00
  0.00000000E+00  0.00000000E+00  0.00000000E+00
  0.00000000E+00  0.00000000E+00  0.00000000E+00
  0.00000000E+00  0.00000000E+00  0.00000000E+00
  0.00000000E+00  0.00000000E+00  0.00000000E+00
  0.00000000E+00  0.00000000E+00  0.00000000E+00
  0.00000000E+00  0.00000000E+00  0.00000000E+00
  0.00000000E+00  0.00000000E+00  0.00000000E+00
  0.00000000E+00  0.00000000E+00  0.00000000E+00
  0.00000000E+00  0.00000000E+00  0.00000000E+00
  0.00000000E+00  0.00000000E+00  0.00000000E+00
  0.00000000E+00  0.00000000E+00  0.00000000E+00
  0.00000000E+00  0.00000000E+00  0.00000000E+00
  0.00000000E+00  0.00000000E+00  0.00000000E+00
  0.00000000E+00  0.00000000E+00  0.00000000E+00
  0.00000000E+00  0.00000000E+00  0.00000000E+00
  0.00000000E+00  0.00000000E+00  0.00000000E+00
  0.00000000E+00  0.00000000E+00  0.00000000E+00
  0.00000000E+00  0.00000000E+00  0.00000000E+00
  0.00000000E+00  0.00000000E+00  0.00000000E+00
  0.00000000E+00  0.00000000E+00  0.00000000E+00
  0.00000000E+00  0.00000000E+00  0.00000000E+00
  0.00000000E+00  0.00000000E+00  0.00000000E+00
  0.00000000E+00  0.00000000E+00  0.00000000E+00
  0.00000000E+00  0.00000000E+00  0.00000000E+00
  0.00000000E+00  0.00000000E+00  0.00000000E+00
  0.00000000E+00  0.00000000E+00  0.00000000E+00
  0.00000000E+00  0.00000000E+00  0.00000000E+00
  0.00000000E+00  0.00000000E+00  0.00000000E+00
  0.00000000E+00  0.00000000E+00  0.00000000E+00
  0.00000000E+00  0.00000000E+00  0.00000000E+00
  0.00000000E+00  0.00000000E+00  0.00000000E+00
  0.00000000E+00  0.00000000E+00  0.00000000E+00
  0.00000000E+00  0.00000000E+00  0.00000000E+00
  0.00000000E+00  0.00000000E+00  0.00000000E+00
  0.00000000E+00  0.00000000E+00  0.00000000E+00
  0.00000000E+00  0.00000000E+00  0.00000000E+00
  0.00000000E+00  0.00000000E+00  0.00000000E+00
  0.00000000E+00  0.00000000E+00  0.00000000E+00
  0.00000000E+00  0.00000000E+00  0.00000000E+00
  0.00000000E+00  0.00000000E+00  0.00000000E+00
  0.00000000E+00  0.00000000E+00  0.00000000E+00
  0.00000000E+00  0.00000000E+00  0.00000000E+00
  0.00000000E+00  0.00000000E+00  0.00000000E+00
  0.00000000E+00  0.00000000E+00  0.00000000E+00
  0.00000000E+00  0.00000000E+00  0.00000000E+00
