cubic_FA0000MA0875Cs0125                
   1.00000000000000     
    12.7071875353295383    0.2072578481437831    0.0167641271062258
     0.2054209906645026   12.7992390781214542    0.0170330665940713
     0.0167718239707042    0.0171539591512275   12.6298146345221305
   Cs   I    Pb   C    N    H 
     1    24     8     7     7    42
Direct
  0.2499743457290098  0.7518575292421185  0.7393167401585559
  0.0357128319429158  0.0046348541021444  0.2518482346641003
 -0.0184906014538613  0.0165322068214954  0.7516544839685408
  0.0385010129138505  0.5083021450725033  0.2491761237776837
  0.9770686696774331  0.5225447167509729  0.7498126171403382
  0.4766383191118802  0.0135464003717865  0.2612441780465897
  0.5405025844335118  0.9881461385846632  0.7620368296500625
  0.5004788754900157  0.4995161478904073  0.2589966752179179
  0.5369356217405696  0.4902919021263152  0.7594133728351442
  0.0285970441620366  0.2665032492689959  0.9905722170669150
  0.0256240915072067  0.2634856463235608  0.4967094508054257
  0.0275577446773892  0.7670745150841017  0.9830994764763736
  0.0367027470724295  0.7641043876055590  0.4960970068928227
  0.5247092230676950  0.2560964698563885  0.0107239112929486
  0.5293862653792977  0.2534696135240392  0.5163406243525636
  0.5387356175531285  0.7558100314291860  0.0104487127567309
  0.5101358552503378  0.7537599231569466  0.5344580905728492
  0.2619961790831516  0.5091685414832898  0.5397790287090836
  0.2668221299044100  0.5328642258155497  0.9786934697174813
  0.2617717536378685  0.0145190913182004  0.5563414334783611
  0.2652351383960781  0.0184684100726944  0.9795697552934877
  0.7616473344561908  0.5344425288664487  0.4854956796241583
  0.7677742859902964  0.5177553825592247  0.0227018073536824
  0.7621728927774972  0.0166844045136998  0.4783702633084926
  0.7653195667575184  0.0237616741029050  0.0247209125168843
  0.5122635897415899  0.0025098164076104  0.0106113385555972
  0.5074160705431001  0.0029655889108179  0.5114231408462776
  0.5107040453121531  0.5045610439920604  0.0082869152925506
  0.5073627740539732  0.5028797487161603  0.5092902439537285
  0.0119000829356470  0.0114525521234387  0.9976705798936325
  0.0119998012127940  0.0112312990097253  0.5040517613418470
  0.0149617715592915  0.5151623481913182  0.9965102548981594
  0.0119051990988300  0.5135257805800496  0.5016258082942787
  0.7789188293255820  0.2821956841468531  0.2569236215165945
  0.7874133396916098  0.7857438395010076  0.7312788508917683
  0.7824513723386727  0.7786370580513629  0.2536475829569888
  0.7818113443601237  0.2768983091477568  0.7403162910052447
  0.2860796054527536  0.7490859358605233  0.2635761192207591
  0.2815756091075522  0.2775441657636487  0.2702758036035967
  0.2855328460229643  0.2721395049800207  0.7552476484958446
  0.7159057708374618  0.1861542755343425  0.2519892029636198
  0.7063409069906171  0.7075342966360718  0.7569084035679580
  0.7166217791956110  0.6847141943290986  0.2472826178201177
  0.6805920620515868  0.2243097060626643  0.7602282454803001
  0.1744143371310432  0.7489180560128395  0.2281082436136110
  0.2140037861930681  0.2100115793575647  0.2046779875159928
  0.1785736326741806  0.2295233178292429  0.7417583585425258
  0.6363971844805560  0.2034188162967417  0.2440701954195315
  0.7257797243069239  0.1398519827333347  0.3200261611739126
  0.7372885313284501  0.1393901679240485  0.1868494773250208
  0.7515463490152180  0.3300803717552433  0.3239476505737581
  0.8618264862499835  0.2589193092513050  0.2679716314409927
  0.7688332148569813  0.3261439986322511  0.1828636013540378
  0.6432196945073192  0.7139918414819374  0.7043248216638059
  0.6756596507072195  0.7170034132616961  0.8329692897877851
  0.7367443082183861  0.6317192758561514  0.7513074662248446
  0.7527822938739219  0.8641317890651976  0.7446645438471569
  0.8560013765868241  0.7715161760964723  0.7822739975640610
  0.8100396695754454  0.7764391441620897  0.6478912563517345
  0.6388068132680718  0.7040302252054762  0.2308484236154253
  0.7193405673222322  0.6415400403793541  0.3178791985212188
  0.7415486529609798  0.6342799038009865  0.1862384237254302
  0.7509907667434168  0.8308309412055008  0.3155724383602807
  0.8629905224836966  0.7531453154197576  0.2738814837736681
  0.7810314118255482  0.8189247001493271  0.1770106024926356
  0.6282831569945965  0.2379556975746650  0.6974598901194515
  0.6431599911193157  0.2502043111682690  0.8294308406139728
  0.6897151435248300  0.1436903892630564  0.7672364538843826
  0.7651588244189684  0.3611266123269071  0.7327771739714498
  0.8354768933444873  0.2609324624676868  0.8065643100350097
  0.8163073379194440  0.2462435569778236  0.6665314867716374
  0.1663267361143671  0.7540684781903889  0.1462870300030892
  0.1306707174218400  0.8117629047909887  0.2592502290907924
  0.1375506623864256  0.6802320767627397  0.2504105572893106
  0.3214089117877568  0.8217081309064663  0.2372295970525108
  0.2878281172942282  0.7439516996483229  0.3501806558479963
  0.3285503226717008  0.6813524362973890  0.2294122641538739
  0.1618124260829480  0.2529162527200672  0.1565693701601737
  0.1680062510166672  0.1606764711737744  0.2499352876528037
  0.2574017280855935  0.1613419718367000  0.1539003178049635
  0.2312781206313390  0.3240413547522117  0.3241133321942330
  0.3367771268746719  0.2272469269583533  0.3153109321971969
  0.3250081280862990  0.3290891468543831  0.2177071390974903
  0.1401003599124940  0.2593063005083996  0.6746081623604904
  0.1308668521512232  0.2452438506747605  0.8075240835342673
  0.1824258685361315  0.1491129380767381  0.7316121810829314
  0.2782751471204464  0.3572651018828751  0.7625238992125021
  0.3208273752080683  0.2378614051985519  0.8269855472635055
  0.3333253582883783  0.2510020908802991  0.6857262763582164
 
  0.00000000E+00  0.00000000E+00  0.00000000E+00
  0.00000000E+00  0.00000000E+00  0.00000000E+00
  0.00000000E+00  0.00000000E+00  0.00000000E+00
  0.00000000E+00  0.00000000E+00  0.00000000E+00
  0.00000000E+00  0.00000000E+00  0.00000000E+00
  0.00000000E+00  0.00000000E+00  0.00000000E+00
  0.00000000E+00  0.00000000E+00  0.00000000E+00
  0.00000000E+00  0.00000000E+00  0.00000000E+00
  0.00000000E+00  0.00000000E+00  0.00000000E+00
  0.00000000E+00  0.00000000E+00  0.00000000E+00
  0.00000000E+00  0.00000000E+00  0.00000000E+00
  0.00000000E+00  0.00000000E+00  0.00000000E+00
  0.00000000E+00  0.00000000E+00  0.00000000E+00
  0.00000000E+00  0.00000000E+00  0.00000000E+00
  0.00000000E+00  0.00000000E+00  0.00000000E+00
  0.00000000E+00  0.00000000E+00  0.00000000E+00
  0.00000000E+00  0.00000000E+00  0.00000000E+00
  0.00000000E+00  0.00000000E+00  0.00000000E+00
  0.00000000E+00  0.00000000E+00  0.00000000E+00
  0.00000000E+00  0.00000000E+00  0.00000000E+00
  0.00000000E+00  0.00000000E+00  0.00000000E+00
  0.00000000E+00  0.00000000E+00  0.00000000E+00
  0.00000000E+00  0.00000000E+00  0.00000000E+00
  0.00000000E+00  0.00000000E+00  0.00000000E+00
  0.00000000E+00  0.00000000E+00  0.00000000E+00
  0.00000000E+00  0.00000000E+00  0.00000000E+00
  0.00000000E+00  0.00000000E+00  0.00000000E+00
  0.00000000E+00  0.00000000E+00  0.00000000E+00
  0.00000000E+00  0.00000000E+00  0.00000000E+00
  0.00000000E+00  0.00000000E+00  0.00000000E+00
  0.00000000E+00  0.00000000E+00  0.00000000E+00
  0.00000000E+00  0.00000000E+00  0.00000000E+00
  0.00000000E+00  0.00000000E+00  0.00000000E+00
  0.00000000E+00  0.00000000E+00  0.00000000E+00
  0.00000000E+00  0.00000000E+00  0.00000000E+00
  0.00000000E+00  0.00000000E+00  0.00000000E+00
  0.00000000E+00  0.00000000E+00  0.00000000E+00
  0.00000000E+00  0.00000000E+00  0.00000000E+00
  0.00000000E+00  0.00000000E+00  0.00000000E+00
  0.00000000E+00  0.00000000E+00  0.00000000E+00
  0.00000000E+00  0.00000000E+00  0.00000000E+00
  0.00000000E+00  0.00000000E+00  0.00000000E+00
  0.00000000E+00  0.00000000E+00  0.00000000E+00
  0.00000000E+00  0.00000000E+00  0.00000000E+00
  0.00000000E+00  0.00000000E+00  0.00000000E+00
  0.00000000E+00  0.00000000E+00  0.00000000E+00
  0.00000000E+00  0.00000000E+00  0.00000000E+00
  0.00000000E+00  0.00000000E+00  0.00000000E+00
  0.00000000E+00  0.00000000E+00  0.00000000E+00
  0.00000000E+00  0.00000000E+00  0.00000000E+00
  0.00000000E+00  0.00000000E+00  0.00000000E+00
  0.00000000E+00  0.00000000E+00  0.00000000E+00
  0.00000000E+00  0.00000000E+00  0.00000000E+00
  0.00000000E+00  0.00000000E+00  0.00000000E+00
  0.00000000E+00  0.00000000E+00  0.00000000E+00
  0.00000000E+00  0.00000000E+00  0.00000000E+00
  0.00000000E+00  0.00000000E+00  0.00000000E+00
  0.00000000E+00  0.00000000E+00  0.00000000E+00
  0.00000000E+00  0.00000000E+00  0.00000000E+00
  0.00000000E+00  0.00000000E+00  0.00000000E+00
  0.00000000E+00  0.00000000E+00  0.00000000E+00
  0.00000000E+00  0.00000000E+00  0.00000000E+00
  0.00000000E+00  0.00000000E+00  0.00000000E+00
  0.00000000E+00  0.00000000E+00  0.00000000E+00
  0.00000000E+00  0.00000000E+00  0.00000000E+00
  0.00000000E+00  0.00000000E+00  0.00000000E+00
  0.00000000E+00  0.00000000E+00  0.00000000E+00
  0.00000000E+00  0.00000000E+00  0.00000000E+00
  0.00000000E+00  0.00000000E+00  0.00000000E+00
  0.00000000E+00  0.00000000E+00  0.00000000E+00
  0.00000000E+00  0.00000000E+00  0.00000000E+00
  0.00000000E+00  0.00000000E+00  0.00000000E+00
  0.00000000E+00  0.00000000E+00  0.00000000E+00
  0.00000000E+00  0.00000000E+00  0.00000000E+00
  0.00000000E+00  0.00000000E+00  0.00000000E+00
  0.00000000E+00  0.00000000E+00  0.00000000E+00
  0.00000000E+00  0.00000000E+00  0.00000000E+00
  0.00000000E+00  0.00000000E+00  0.00000000E+00
  0.00000000E+00  0.00000000E+00  0.00000000E+00
  0.00000000E+00  0.00000000E+00  0.00000000E+00
  0.00000000E+00  0.00000000E+00  0.00000000E+00
  0.00000000E+00  0.00000000E+00  0.00000000E+00
  0.00000000E+00  0.00000000E+00  0.00000000E+00
  0.00000000E+00  0.00000000E+00  0.00000000E+00
  0.00000000E+00  0.00000000E+00  0.00000000E+00
  0.00000000E+00  0.00000000E+00  0.00000000E+00
  0.00000000E+00  0.00000000E+00  0.00000000E+00
  0.00000000E+00  0.00000000E+00  0.00000000E+00
  0.00000000E+00  0.00000000E+00  0.00000000E+00
