cubic_FA0125MA0125Cs0750kicked          
   1.00000000000000     
    12.7009854183280506   -0.0537516240618753    0.1031914537521508
    -0.0537146337426080   12.7158674578512176   -0.0474564891280659
     0.1023434758355521   -0.0467341775509590   12.6717373231475019
   Cs   I    Pb   C    N    H 
     6    24     8     2     3    11
Direct
  0.2528875926547158  0.2418292302418512  0.2377188351648299
  0.2588220540217144  0.2520337793990166  0.7509177311776426
  0.2377964677749066  0.7452070465564335  0.7626092984907055
  0.7542212615373419  0.2342067178671420  0.2514846885892313
  0.7644944584735170  0.2404844053640686  0.7311007729641278
  0.7437196047929777  0.7616413972927106  0.2473473301294607
  0.9677249228469625  0.9812772182844295  0.2454848105267980
  0.0165536761469442  0.0450554811931344  0.7454391167888099
  0.9398124191646992  0.5233904942624095  0.2443372178453382
  0.0415845941521513  0.4762647401106714  0.7421893681275737
  0.5236707356868903  0.0130559216227395  0.2475939945847629
  0.4719450942708653 -0.0087391100667642  0.7484882484544128
  0.5573404053840078  0.4881550187405914  0.2465028804453019
  0.4521755172878926  0.5150549116801673  0.7486965848176600
  0.0224626531315383  0.2551332775586815  0.0350177201420254
  0.9718713055156942  0.2531272356710367  0.4680682821231118
  0.9833259115458742  0.7547689304258791  0.9751797975684685
  0.0424773737029913  0.7540585157725340  0.5138895315431687
  0.4609989649186873  0.2521228981630635  0.9925784905157318
  0.5378409146529767  0.2489551705468259  0.5173054766903777
  0.5262184670821892  0.7523799821441994  0.0123795526038703
  0.4915845733413305  0.7465162499293158  0.5051296831525799
  0.2549373250972171  0.4650676450153503  0.4524835246719424
  0.2474370085861589  0.5268514259728067  0.0344348000782538
  0.2516636306252485  0.0455721680374903  0.4803708776718676
  0.2463443667826819  0.9776763431373696  0.0059041259633232
  0.7540611276534654  0.5135144968228801  0.5326676251117735
  0.7467451229362795  0.4778550965296823  0.9427877334891288
  0.7505607458086991 -0.0157120400825699  0.5066834521217818
  0.7468219087382643  0.0474715724870516 -0.0206100405519380
  0.4985644757360516  0.0038139970820857 -0.0030405268241622
  0.4991804780577342  0.0015821913138440  0.4991368805651409
  0.4973559363720403  0.4991287626350726 -0.0006212993455328
  0.4997960341497994  0.4940282182597401  0.4946475149316497
  0.9945459846530091  0.0079362474674812 -0.0060159372301688
  0.0031066871175749  0.0039012223493338  0.4968973081774428
  0.9994849100779493  0.5047720022081472 -0.0010325792311913
  0.0059597286998839  0.5024477506556305  0.4920015930930085
  0.2530594658105425  0.7549899944124769  0.2811140537366538
  0.7684180601331544  0.7838228895669062  0.7547015568422877
  0.3523573786420920  0.7360824370697412  0.2584462211123337
  0.1825518814617580  0.7845714214927303  0.2127625194881064
  0.7048396048287687  0.6850716931232556  0.7468742506631204
  0.2259508899098190  0.7444552075675812  0.3628504137858923
  0.4013194146858298  0.7175041502258692  0.3190603459741324
  0.3851141143753236  0.7446357851899189  0.1843534816180150
  0.2016480472162316  0.8032459833998371  0.1362893410769246
  0.1084386225086565  0.8036871502732870  0.2382734318551505
  0.6252272322793982  0.6994000680772864  0.7416269227474684
  0.7151180151252714  0.6357091468101064  0.8114677558055802
  0.7258714259015457  0.6403674155834719  0.6798174277569277
  0.7395062090337995  0.8301547224303651  0.8221747965591902
  0.8508116903534895  0.7629184967652396  0.7663899889972969
  0.7606587006313574  0.8284777801038778  0.6815927884175548
 
  0.00000000E+00  0.00000000E+00  0.00000000E+00
  0.00000000E+00  0.00000000E+00  0.00000000E+00
  0.00000000E+00  0.00000000E+00  0.00000000E+00
  0.00000000E+00  0.00000000E+00  0.00000000E+00
  0.00000000E+00  0.00000000E+00  0.00000000E+00
  0.00000000E+00  0.00000000E+00  0.00000000E+00
  0.00000000E+00  0.00000000E+00  0.00000000E+00
  0.00000000E+00  0.00000000E+00  0.00000000E+00
  0.00000000E+00  0.00000000E+00  0.00000000E+00
  0.00000000E+00  0.00000000E+00  0.00000000E+00
  0.00000000E+00  0.00000000E+00  0.00000000E+00
  0.00000000E+00  0.00000000E+00  0.00000000E+00
  0.00000000E+00  0.00000000E+00  0.00000000E+00
  0.00000000E+00  0.00000000E+00  0.00000000E+00
  0.00000000E+00  0.00000000E+00  0.00000000E+00
  0.00000000E+00  0.00000000E+00  0.00000000E+00
  0.00000000E+00  0.00000000E+00  0.00000000E+00
  0.00000000E+00  0.00000000E+00  0.00000000E+00
  0.00000000E+00  0.00000000E+00  0.00000000E+00
  0.00000000E+00  0.00000000E+00  0.00000000E+00
  0.00000000E+00  0.00000000E+00  0.00000000E+00
  0.00000000E+00  0.00000000E+00  0.00000000E+00
  0.00000000E+00  0.00000000E+00  0.00000000E+00
  0.00000000E+00  0.00000000E+00  0.00000000E+00
  0.00000000E+00  0.00000000E+00  0.00000000E+00
  0.00000000E+00  0.00000000E+00  0.00000000E+00
  0.00000000E+00  0.00000000E+00  0.00000000E+00
  0.00000000E+00  0.00000000E+00  0.00000000E+00
  0.00000000E+00  0.00000000E+00  0.00000000E+00
  0.00000000E+00  0.00000000E+00  0.00000000E+00
  0.00000000E+00  0.00000000E+00  0.00000000E+00
  0.00000000E+00  0.00000000E+00  0.00000000E+00
  0.00000000E+00  0.00000000E+00  0.00000000E+00
  0.00000000E+00  0.00000000E+00  0.00000000E+00
  0.00000000E+00  0.00000000E+00  0.00000000E+00
  0.00000000E+00  0.00000000E+00  0.00000000E+00
  0.00000000E+00  0.00000000E+00  0.00000000E+00
  0.00000000E+00  0.00000000E+00  0.00000000E+00
  0.00000000E+00  0.00000000E+00  0.00000000E+00
  0.00000000E+00  0.00000000E+00  0.00000000E+00
  0.00000000E+00  0.00000000E+00  0.00000000E+00
  0.00000000E+00  0.00000000E+00  0.00000000E+00
  0.00000000E+00  0.00000000E+00  0.00000000E+00
  0.00000000E+00  0.00000000E+00  0.00000000E+00
  0.00000000E+00  0.00000000E+00  0.00000000E+00
  0.00000000E+00  0.00000000E+00  0.00000000E+00
  0.00000000E+00  0.00000000E+00  0.00000000E+00
  0.00000000E+00  0.00000000E+00  0.00000000E+00
  0.00000000E+00  0.00000000E+00  0.00000000E+00
  0.00000000E+00  0.00000000E+00  0.00000000E+00
  0.00000000E+00  0.00000000E+00  0.00000000E+00
  0.00000000E+00  0.00000000E+00  0.00000000E+00
  0.00000000E+00  0.00000000E+00  0.00000000E+00
  0.00000000E+00  0.00000000E+00  0.00000000E+00
