ortho_FA0625MA0250Cs0125                
   1.00000000000000     
    11.4338418947245941   -0.1642148644061173    0.3021322406163271
    -0.1494968577394564    9.5296429890846230   -0.0912594589734109
     0.5062570936901341   -0.1661924150487569   18.7392835160928577
   Pb   I    Cs   C    N    H 
     8    24     1     7    12    37
Direct
  0.1689884598159839  0.1009831021749220  0.4496866372878721
  0.1671031116513255  0.6046512282363765  0.4468077081743310
  0.8453509403235675  0.3558406524249494  0.5731179942242968
  0.8551401117410709  0.8513350206362125  0.5667290500122204
  0.3483955373122799  0.3807855367551084  0.9355453032254336
  0.3505034149801839  0.8827621358906451  0.9332118310554735
  0.6541012697717460  0.1337833033892808  0.0442110416586528
  0.6487382213569951  0.6323021304984016  0.0528800527809823
  0.1674465102736186  0.1279900687682694  0.9827323846776913
  0.1715346392690801  0.6305081287309997  0.9935757798928687
  0.8217698012423970  0.3959975724577514  0.9929075799025332
  0.8099558574603477  0.8769489226900982  0.9811637677121492
  0.3386330872237002  0.3711811569286840  0.4988889268191185
  0.3409117529573920  0.8566063930980802  0.5035677939385450
  0.6844100540148448  0.0936831120008823  0.5205773906847766
  0.6965429915614214  0.5949231187120572  0.5044429045164304
  0.2936254204402133  0.0737067842199940  0.2983073905480327
  0.3078742718070083  0.6071218288989806  0.3004366602614920
  0.7227890825140063  0.3875241063137895  0.7226221015061864
  0.7481819201546650  0.8316233641281805  0.7222736991380285
  0.2296036655236982  0.3929554970515657  0.7876740359690019
  0.2386796554675497  0.8577087090488639  0.7866923573986709
  0.7683042904682593  0.1095758520338687  0.1943097826399069
  0.7594516471748557  0.6305985710968446  0.2016376600544450
  0.0321807028478887  0.1135078392573937  0.6130217654570116
  0.0372626691677733  0.6083095104331080  0.6131476202611399
  0.9950324689135402  0.3415051955919434  0.4023329052573307
  0.9894915246476146  0.8544541272077241  0.4002670274094893
  0.4611500183050343  0.3676718369238923  0.0969139339410513
  0.4633779639122411  0.8888921242013873  0.0969844572970325
  0.5341967770946349  0.1388615906622392  0.8868540385491049
  0.5317371851846729  0.6316140829469814  0.8907835066284747
  0.9558298294486406  0.6243155147303149  0.8361905365935205
  0.9051816036870931  0.1223537499873620  0.8097215857746580
  0.4258690712013062  0.1395177422262270  0.6926803271138199
  0.0642001640817923  0.3649252282221079  0.1893039487445842
  0.5918635334018475  0.3827117750371419  0.3427338346855426
  0.0638435001384417  0.8685451423003375  0.1760277720644068
  0.4710738344441244  0.6480878224042823  0.6754314094731837
  0.6105257448304418  0.8787536318849850  0.3529689855373169
  0.9653188003682324  0.0091606801925062  0.8163807059106856
  0.9425338344500219  0.2520407637803804  0.8197981711904458
  0.5279485595088562  0.0800766421664967  0.6905658250611431
  0.3466997687328678  0.1206073429822972  0.6450568308431219
  0.1579613955026528  0.2902225657637479  0.1764577385709835
  0.0178172758642431  0.4459624163993771  0.1431934343688834
  0.6996845627612851  0.3393907972704581  0.3431344200289888
  0.5169858317170050  0.3459631419181246  0.2946721493356910
  0.1586458337740699  0.7940244191035261  0.1744626285901076
  0.0095434128999186  0.9035129913890162  0.1193068887614559
  0.3524213745909396  0.6176251342266253  0.6489848635254746
  0.5553996791083956  0.8725087650681308  0.2828545395502250
  0.8147350402204880  0.1065063244718478  0.7941949960859495
  0.9247043147014198  0.9200387574640134  0.7969809148559542
  0.0534581487381831  0.0083026037806607  0.8246287702228808
  0.0296124833310509  0.2784363759665748  0.8256336392289088
  0.8860674456435027  0.3254921315920534  0.8032439499013374
  0.4044286507774986  0.2110925053357271  0.7374571181458005
  0.5861550793941226  0.1090216826415413  0.7280864942621345
  0.5606321480809568  0.0240621935087068  0.6473307393698777
  0.3556471475928284  0.0501435145395591  0.6030047002097476
  0.2671009539972996  0.1659268720827755  0.6529312461463214
  0.0216434988251786  0.3591484745675806  0.2429178276334056
  0.1915904501806953  0.2337084845277843  0.2165708512668031
  0.2034218806506970  0.2888633288232475  0.1279365925772035
  0.0531295411696233  0.4592297389602764  0.0922716422051144
  0.9413761948344161  0.4967527398542927  0.1571967805937428
  0.5618113688724807  0.4532565730253491  0.3861426035880151
  0.7537431805414263  0.3759837832114511  0.3814092317117037
  0.7344281644919222  0.2762329166206424  0.3027068973010976
  0.5384213213886785  0.2836985552262776  0.2514487790134969
  0.4357170146623847  0.3898325315287406  0.2974388835910293
  0.0276308900249040  0.9043946272677308  0.2281358134172543
  0.1976108318048552  0.7704990375366813  0.2207889975394768
  0.1956771446155079  0.7554107916698308  0.1274423417566069
  0.0362629722703414  0.8723124661929018  0.0687324795134519
  0.9333016649422520  0.9572851093011315  0.1254196009619353
  0.3287175158072465  0.6959376005962545  0.6148496523938751
  0.2898532458989349  0.6109704052859232  0.6911104029334411
  0.3485019293489101  0.5243441614509868  0.6192030401978450
  0.4710692530188103  0.7514373363581242  0.7018568237123654
  0.4910441125928644  0.5687361562575831  0.7141274262972772
  0.5355704251893951  0.6459561007290164  0.6300727895990079
  0.4774391173070779  0.9277626916965608  0.2847715238841648
  0.5348848308568943  0.7703792543915671  0.2674932635446131
  0.6120573016037253  0.9160432724749087  0.2432156771083131
  0.5478076244384394  0.8372651075694996  0.3940835886353752
  0.6898834020870641  0.8168544338945922  0.3491786854910082
  0.6333990904979879  0.9882962441063566  0.3659122002701352
 
  0.00000000E+00  0.00000000E+00  0.00000000E+00
  0.00000000E+00  0.00000000E+00  0.00000000E+00
  0.00000000E+00  0.00000000E+00  0.00000000E+00
  0.00000000E+00  0.00000000E+00  0.00000000E+00
  0.00000000E+00  0.00000000E+00  0.00000000E+00
  0.00000000E+00  0.00000000E+00  0.00000000E+00
  0.00000000E+00  0.00000000E+00  0.00000000E+00
  0.00000000E+00  0.00000000E+00  0.00000000E+00
  0.00000000E+00  0.00000000E+00  0.00000000E+00
  0.00000000E+00  0.00000000E+00  0.00000000E+00
  0.00000000E+00  0.00000000E+00  0.00000000E+00
  0.00000000E+00  0.00000000E+00  0.00000000E+00
  0.00000000E+00  0.00000000E+00  0.00000000E+00
  0.00000000E+00  0.00000000E+00  0.00000000E+00
  0.00000000E+00  0.00000000E+00  0.00000000E+00
  0.00000000E+00  0.00000000E+00  0.00000000E+00
  0.00000000E+00  0.00000000E+00  0.00000000E+00
  0.00000000E+00  0.00000000E+00  0.00000000E+00
  0.00000000E+00  0.00000000E+00  0.00000000E+00
  0.00000000E+00  0.00000000E+00  0.00000000E+00
  0.00000000E+00  0.00000000E+00  0.00000000E+00
  0.00000000E+00  0.00000000E+00  0.00000000E+00
  0.00000000E+00  0.00000000E+00  0.00000000E+00
  0.00000000E+00  0.00000000E+00  0.00000000E+00
  0.00000000E+00  0.00000000E+00  0.00000000E+00
  0.00000000E+00  0.00000000E+00  0.00000000E+00
  0.00000000E+00  0.00000000E+00  0.00000000E+00
  0.00000000E+00  0.00000000E+00  0.00000000E+00
  0.00000000E+00  0.00000000E+00  0.00000000E+00
  0.00000000E+00  0.00000000E+00  0.00000000E+00
  0.00000000E+00  0.00000000E+00  0.00000000E+00
  0.00000000E+00  0.00000000E+00  0.00000000E+00
  0.00000000E+00  0.00000000E+00  0.00000000E+00
  0.00000000E+00  0.00000000E+00  0.00000000E+00
  0.00000000E+00  0.00000000E+00  0.00000000E+00
  0.00000000E+00  0.00000000E+00  0.00000000E+00
  0.00000000E+00  0.00000000E+00  0.00000000E+00
  0.00000000E+00  0.00000000E+00  0.00000000E+00
  0.00000000E+00  0.00000000E+00  0.00000000E+00
  0.00000000E+00  0.00000000E+00  0.00000000E+00
  0.00000000E+00  0.00000000E+00  0.00000000E+00
  0.00000000E+00  0.00000000E+00  0.00000000E+00
  0.00000000E+00  0.00000000E+00  0.00000000E+00
  0.00000000E+00  0.00000000E+00  0.00000000E+00
  0.00000000E+00  0.00000000E+00  0.00000000E+00
  0.00000000E+00  0.00000000E+00  0.00000000E+00
  0.00000000E+00  0.00000000E+00  0.00000000E+00
  0.00000000E+00  0.00000000E+00  0.00000000E+00
  0.00000000E+00  0.00000000E+00  0.00000000E+00
  0.00000000E+00  0.00000000E+00  0.00000000E+00
  0.00000000E+00  0.00000000E+00  0.00000000E+00
  0.00000000E+00  0.00000000E+00  0.00000000E+00
  0.00000000E+00  0.00000000E+00  0.00000000E+00
  0.00000000E+00  0.00000000E+00  0.00000000E+00
  0.00000000E+00  0.00000000E+00  0.00000000E+00
  0.00000000E+00  0.00000000E+00  0.00000000E+00
  0.00000000E+00  0.00000000E+00  0.00000000E+00
  0.00000000E+00  0.00000000E+00  0.00000000E+00
  0.00000000E+00  0.00000000E+00  0.00000000E+00
  0.00000000E+00  0.00000000E+00  0.00000000E+00
  0.00000000E+00  0.00000000E+00  0.00000000E+00
  0.00000000E+00  0.00000000E+00  0.00000000E+00
  0.00000000E+00  0.00000000E+00  0.00000000E+00
  0.00000000E+00  0.00000000E+00  0.00000000E+00
  0.00000000E+00  0.00000000E+00  0.00000000E+00
  0.00000000E+00  0.00000000E+00  0.00000000E+00
  0.00000000E+00  0.00000000E+00  0.00000000E+00
  0.00000000E+00  0.00000000E+00  0.00000000E+00
  0.00000000E+00  0.00000000E+00  0.00000000E+00
  0.00000000E+00  0.00000000E+00  0.00000000E+00
  0.00000000E+00  0.00000000E+00  0.00000000E+00
  0.00000000E+00  0.00000000E+00  0.00000000E+00
  0.00000000E+00  0.00000000E+00  0.00000000E+00
  0.00000000E+00  0.00000000E+00  0.00000000E+00
  0.00000000E+00  0.00000000E+00  0.00000000E+00
  0.00000000E+00  0.00000000E+00  0.00000000E+00
  0.00000000E+00  0.00000000E+00  0.00000000E+00
  0.00000000E+00  0.00000000E+00  0.00000000E+00
  0.00000000E+00  0.00000000E+00  0.00000000E+00
  0.00000000E+00  0.00000000E+00  0.00000000E+00
  0.00000000E+00  0.00000000E+00  0.00000000E+00
  0.00000000E+00  0.00000000E+00  0.00000000E+00
  0.00000000E+00  0.00000000E+00  0.00000000E+00
  0.00000000E+00  0.00000000E+00  0.00000000E+00
  0.00000000E+00  0.00000000E+00  0.00000000E+00
  0.00000000E+00  0.00000000E+00  0.00000000E+00
  0.00000000E+00  0.00000000E+00  0.00000000E+00
  0.00000000E+00  0.00000000E+00  0.00000000E+00
  0.00000000E+00  0.00000000E+00  0.00000000E+00
