hexa_FA0125MA0125Cs0750                 
   1.00000000000000     
    17.6010784785894003    0.0364415598535364   -0.0823166135029687
    -8.7748221526152452   14.9363945834979290   -0.1342534912059921
    -0.0354748509269029   -0.0929711354313144    7.8542719563132213
   Pb   I    N    C    H    Cs
     8    24     3     2    11     6
Direct
  0.4950247958514937  0.4947442765094597  0.9402801408235971
  0.5059304186013359  0.0016334560303098  0.9377207033736996
  0.0007983125287479  0.4990085040507986  0.9356067413060066
 -0.0025272663355208  0.0028992124384494  0.9323572216621024
 -0.0030257507385501  0.0012701820106467  0.4369568684741253
 -0.0008809389244006  0.5001561441618150  0.4399364033953067
  0.5058862137508183  0.0015327476038587  0.4409088062022880
  0.4985647775388505  0.4970497895202535  0.4403926800869358
  0.4177146897500753  0.0841091958864449  0.1909474667708580
  0.4124744166182597  0.5812583735552985  0.1931426493617723
  0.9175051930452146  0.0933769674043575  0.1885715305496517
  0.9125518066523198  0.5836995315021242  0.1774158539387287
  0.4108444430853694  0.3241238317130245  0.1867521820755973
  0.4362941200127915  0.8289822195869119  0.1815794244566380
  0.9125667602413222  0.3282976976011454  0.1815619945498324
  0.8935307361990309  0.8291433595147564  0.1692296507091959
  0.1672940329768264  0.0857006500348387  0.1913722931155270
  0.1706540219468556  0.5810133851390783  0.1973053555763004
  0.6758620852236504  0.0928539342143248  0.1969174113541197
  0.6660302668839200  0.5765833097059636  0.1882599946650465
  0.0793964342199073  0.4091306528308077  0.6785964286773029
  0.0851429049822008  0.9205695180761853  0.6862982499751329
  0.5772532937408066  0.4050089755182429  0.6900758804606467
  0.5902574219613671  0.9155422751015788  0.6884699795421343
  0.0853785086606844  0.1742350931479039  0.6870166249432291
  0.0953999295148315  0.6702773738945956  0.6955061634103145
  0.5897351526889614  0.1730664745358642  0.6959311849107709
  0.5971363282312379  0.6686041503326977  0.7034893897421066
  0.3272390815529444  0.4167266304583524  0.6781274517727830
  0.3367092457311037  0.9137267443102483  0.6846790993640665
  0.8285438790825058  0.4203333628743332  0.6872465448826335
  0.8281399333820243  0.9229075249983909  0.6787029051897000
  0.2253103564664831  0.8184570998624455  0.1865796841798936
  0.0931221463112659  0.8185695002299815  0.1868952527308235
  0.7948796782990254  0.6232671204905950  0.7717771791190161
  0.1793029835107353  0.8590440435263312  0.1862989501100620
  0.8452406237545622  0.6642516936646011  0.6140127481873144
  0.2158430599035402  0.9324471313238105  0.1857301484309717
  0.1975667588364275  0.7501214029355771  0.1875835340904374
  0.2925742304910760  0.8548814782959078  0.1860497843334761
  0.0620824688224859  0.8549411603774340  0.1854314093574757
  0.0528975596877383  0.7502657900682030  0.1863825872443803
  0.7347522286999691  0.6212817102339273  0.7704202966371482
  0.8290023977917808  0.6582808181210837  0.8810023823569887
  0.7821176311011633  0.5579779876924613  0.7821521066279616
  0.8571380125606656  0.7324528616478954  0.6056322110289364
  0.9074273799148656  0.6644897338445550  0.6211463924416990
  0.8055609099558242  0.6235880232697755  0.5046750109224123
  0.1671522954285745  0.3310404596803229  0.1921847972014724
  0.3286038094526809  0.6624587141119098  0.6844908272581177
  0.6751245658061785  0.8462031909740814  0.1843818887737720
  0.8312476959920274  0.1589532162886677  0.6855251992229330
  0.3233295718717007  0.1503685824819583  0.6851578896265128
  0.6640366869081692  0.3300408357228588  0.1960965051030359
 
  0.00000000E+00  0.00000000E+00  0.00000000E+00
  0.00000000E+00  0.00000000E+00  0.00000000E+00
  0.00000000E+00  0.00000000E+00  0.00000000E+00
  0.00000000E+00  0.00000000E+00  0.00000000E+00
  0.00000000E+00  0.00000000E+00  0.00000000E+00
  0.00000000E+00  0.00000000E+00  0.00000000E+00
  0.00000000E+00  0.00000000E+00  0.00000000E+00
  0.00000000E+00  0.00000000E+00  0.00000000E+00
  0.00000000E+00  0.00000000E+00  0.00000000E+00
  0.00000000E+00  0.00000000E+00  0.00000000E+00
  0.00000000E+00  0.00000000E+00  0.00000000E+00
  0.00000000E+00  0.00000000E+00  0.00000000E+00
  0.00000000E+00  0.00000000E+00  0.00000000E+00
  0.00000000E+00  0.00000000E+00  0.00000000E+00
  0.00000000E+00  0.00000000E+00  0.00000000E+00
  0.00000000E+00  0.00000000E+00  0.00000000E+00
  0.00000000E+00  0.00000000E+00  0.00000000E+00
  0.00000000E+00  0.00000000E+00  0.00000000E+00
  0.00000000E+00  0.00000000E+00  0.00000000E+00
  0.00000000E+00  0.00000000E+00  0.00000000E+00
  0.00000000E+00  0.00000000E+00  0.00000000E+00
  0.00000000E+00  0.00000000E+00  0.00000000E+00
  0.00000000E+00  0.00000000E+00  0.00000000E+00
  0.00000000E+00  0.00000000E+00  0.00000000E+00
  0.00000000E+00  0.00000000E+00  0.00000000E+00
  0.00000000E+00  0.00000000E+00  0.00000000E+00
  0.00000000E+00  0.00000000E+00  0.00000000E+00
  0.00000000E+00  0.00000000E+00  0.00000000E+00
  0.00000000E+00  0.00000000E+00  0.00000000E+00
  0.00000000E+00  0.00000000E+00  0.00000000E+00
  0.00000000E+00  0.00000000E+00  0.00000000E+00
  0.00000000E+00  0.00000000E+00  0.00000000E+00
  0.00000000E+00  0.00000000E+00  0.00000000E+00
  0.00000000E+00  0.00000000E+00  0.00000000E+00
  0.00000000E+00  0.00000000E+00  0.00000000E+00
  0.00000000E+00  0.00000000E+00  0.00000000E+00
  0.00000000E+00  0.00000000E+00  0.00000000E+00
  0.00000000E+00  0.00000000E+00  0.00000000E+00
  0.00000000E+00  0.00000000E+00  0.00000000E+00
  0.00000000E+00  0.00000000E+00  0.00000000E+00
  0.00000000E+00  0.00000000E+00  0.00000000E+00
  0.00000000E+00  0.00000000E+00  0.00000000E+00
  0.00000000E+00  0.00000000E+00  0.00000000E+00
  0.00000000E+00  0.00000000E+00  0.00000000E+00
  0.00000000E+00  0.00000000E+00  0.00000000E+00
  0.00000000E+00  0.00000000E+00  0.00000000E+00
  0.00000000E+00  0.00000000E+00  0.00000000E+00
  0.00000000E+00  0.00000000E+00  0.00000000E+00
  0.00000000E+00  0.00000000E+00  0.00000000E+00
  0.00000000E+00  0.00000000E+00  0.00000000E+00
  0.00000000E+00  0.00000000E+00  0.00000000E+00
  0.00000000E+00  0.00000000E+00  0.00000000E+00
  0.00000000E+00  0.00000000E+00  0.00000000E+00
  0.00000000E+00  0.00000000E+00  0.00000000E+00
