hexa_FA0375MA0500Cs0125                 
   1.00000000000000     
    17.9935725726458102    0.0427883058299989    0.1805043369510200
    -8.9651496820875103   14.7479118197135151   -0.2417962044445282
     0.0758754518676839   -0.0807975326267240    7.7989063408641117
   Pb   I    N    C    H    Cs
     8    24    10     7    39     1
Direct
  0.5025593620297976  0.4997233865768154  0.9288838948065228
  0.5072003275050346  0.0044901549246821  0.9296248542196096
  0.9987003922135773  0.4941612832110661  0.9517526290966410
  0.0001138043617958  0.0028113491337804  0.9425885886982354
  0.0027974869331404  0.0023596655294585  0.4455504089240326
  0.0019082446717761  0.4977352325438247  0.4559552249902553
  0.5031350244970905  0.0025033631103825  0.4330538621526424
  0.5015471432515254  0.4943638554730401  0.4294355235684484
  0.4137021139427220  0.0763887478461166  0.1851709326507060
  0.4163121530857270  0.5781219146843812  0.1904293832594010
  0.9190982188021853  0.0919684743859805  0.2209049699800574
  0.9212887084821990  0.5857591329920788  0.2086342627517788
  0.4324485962830453  0.3217124446693576  0.1601991407136642
  0.4327144977372066  0.8221816827736838  0.1591121812066031
  0.9011741479481217  0.3258956433648180  0.2084594254204153
  0.9043420007521961  0.8293554137746287  0.1864227476725721
  0.1712010060581575  0.0824152980667275  0.1862701308040096
  0.1689525251189232  0.5786974178658479  0.2011467235068025
  0.6715756798042521  0.0922412412610052  0.1861889674702548
  0.6715754542351399  0.5845074035435074  0.1771924521728841
  0.0822924988898840  0.4095260171653080  0.6926895422722731
  0.0849597226831779  0.9172560423724643  0.6963853701655703
  0.5881524009391411  0.4157265701134126  0.6782200058458401
  0.6036558644711496  0.9305250765989488  0.6648043565954781
  0.0972756509316679  0.1744087261996615  0.7004575799684164
  0.1074385210083613  0.6722741270971888  0.7178493990694914
  0.5826874899334581  0.1745431909968470  0.6838397544359603
  0.5758060075763720  0.6718894470807463  0.6721118560090446
  0.3360188157469410  0.4030794146313904  0.6832592252728017
  0.3386657852305466  0.9121100471674940  0.6890218493624708
  0.8318012277956633  0.4142970174674516  0.7107905223513565
  0.8341929577251406  0.9174121255420882  0.6889512193944757
  0.2270684389272835  0.3186978362410591  0.1878845137686926
  0.2271390764398028  0.8197638352335236  0.1896241102594234
  0.0993343390289059  0.3222477709202651  0.1896475633533771
  0.0968547677356765  0.8181245313753552  0.1861496115748042
  0.7796116045753961  0.6813671824826161  0.6832642880268645
  0.9081995513364985  0.6798601854262928  0.6909268536662579
  0.6319049230582666  0.8289220423933605  0.2667862451478053
  0.6693964271385520  0.3738516763002490  0.0878794252607827
  0.8041670631226207  0.1393776904371495  0.5862128663570939
  0.2902942915567172  0.6389820019988497  0.7811989219433052
  0.1841507166990892  0.3612930813010820  0.1889653950358651
  0.1818930641804201  0.8597970540519420  0.1856676864460165
  0.8231598294156945  0.6396387892502442  0.6853885512472921
  0.6926105404415853  0.8596393079106960  0.1164803334557675
  0.6822197857597769  0.3485228013612795  0.2617766854492272
  0.8441436759229042  0.1572993573222576  0.7600673240324916
  0.3397550666484219  0.6527147735022393  0.6173612129720650
  0.2224364515269162  0.4354454489078427  0.1893955049907206
  0.2183170380446242  0.9338995605636368  0.1819522510348710
  0.7857796627736712  0.5654494500473460  0.6824143244052784
  0.1978362651757369  0.2493555883452820  0.1873613881845240
  0.1997326518351014  0.7508263723824643  0.1930301133731638
  0.2935295387782997  0.3549806270506996  0.1859223037743863
  0.2935379808221886  0.8582418571089169  0.1876732125261930
  0.0711530129967392  0.3607265022674069  0.1922274671407775
  0.0660776966041111  0.8540848976472809  0.1828898481059487
  0.0571679328654372  0.2531126455669894  0.1924177828182848
  0.0565963363109135  0.7486561334875912  0.1897173156211232
  0.8082452615563814  0.7507073954395865  0.6859761594587741
  0.7131120753889904  0.6449439413943150  0.6791795050860717
  0.9368173674500956  0.6419758204338001  0.6929918687731639
  0.9493592021790439  0.7491507744094269  0.6930997318536377
  0.5748655712372343  0.8282998514450142  0.2387125243456881
  0.6583260707826303  0.8708732874293530  0.3741087387439873
  0.6137439342936208  0.7642194046776478  0.3028045313765424
  0.7117517496316866  0.9296588008253858  0.0900810039799838
  0.7498078153516952  0.8557574810699072  0.1472203364335801
  0.6586089815654126  0.8155055268762954  0.0058110782007632
  0.6803958670531082  0.4397375072886334  0.0916459703377440
  0.6061581677453880  0.3322829777261577  0.0466723414804826
  0.7106240271658171  0.3711249251666954  0.9962465393855042
  0.6417704099664654  0.3600646074260329  0.3534434442723048
  0.6633950371072881  0.2770790613005455  0.2593399029941388
  0.7509159851196826  0.3917577213828942  0.2955429192235615
  0.8030442293522180  0.1945514676857319  0.5414174566743917
  0.7401102097300869  0.0841739930110244  0.5900322906897895
  0.8378071683888948  0.1235121843770579  0.4953933073610076
  0.8083789138192694  0.1771491200893714  0.8483041718603775
  0.8387994211322716  0.0945703533413952  0.8026956723311838
  0.9125770875333300  0.2114276845266734  0.7514757692837074
  0.2368378191101561  0.6466566788400497  0.7636385518718980
  0.3284701393100228  0.6845647567174367  0.8768355849636629
  0.2657086985273762  0.5742562387645122  0.8256382035052726
  0.3578138291965018  0.7189666423979750  0.5671143901528112
  0.3979446733881116  0.6497080761471525  0.6428439582196354
  0.2977176816196542  0.5988258076631718  0.5261157694088328
  0.3264466562724709  0.1604066963850835  0.6971129785904138
 
  0.00000000E+00  0.00000000E+00  0.00000000E+00
  0.00000000E+00  0.00000000E+00  0.00000000E+00
  0.00000000E+00  0.00000000E+00  0.00000000E+00
  0.00000000E+00  0.00000000E+00  0.00000000E+00
  0.00000000E+00  0.00000000E+00  0.00000000E+00
  0.00000000E+00  0.00000000E+00  0.00000000E+00
  0.00000000E+00  0.00000000E+00  0.00000000E+00
  0.00000000E+00  0.00000000E+00  0.00000000E+00
  0.00000000E+00  0.00000000E+00  0.00000000E+00
  0.00000000E+00  0.00000000E+00  0.00000000E+00
  0.00000000E+00  0.00000000E+00  0.00000000E+00
  0.00000000E+00  0.00000000E+00  0.00000000E+00
  0.00000000E+00  0.00000000E+00  0.00000000E+00
  0.00000000E+00  0.00000000E+00  0.00000000E+00
  0.00000000E+00  0.00000000E+00  0.00000000E+00
  0.00000000E+00  0.00000000E+00  0.00000000E+00
  0.00000000E+00  0.00000000E+00  0.00000000E+00
  0.00000000E+00  0.00000000E+00  0.00000000E+00
  0.00000000E+00  0.00000000E+00  0.00000000E+00
  0.00000000E+00  0.00000000E+00  0.00000000E+00
  0.00000000E+00  0.00000000E+00  0.00000000E+00
  0.00000000E+00  0.00000000E+00  0.00000000E+00
  0.00000000E+00  0.00000000E+00  0.00000000E+00
  0.00000000E+00  0.00000000E+00  0.00000000E+00
  0.00000000E+00  0.00000000E+00  0.00000000E+00
  0.00000000E+00  0.00000000E+00  0.00000000E+00
  0.00000000E+00  0.00000000E+00  0.00000000E+00
  0.00000000E+00  0.00000000E+00  0.00000000E+00
  0.00000000E+00  0.00000000E+00  0.00000000E+00
  0.00000000E+00  0.00000000E+00  0.00000000E+00
  0.00000000E+00  0.00000000E+00  0.00000000E+00
  0.00000000E+00  0.00000000E+00  0.00000000E+00
  0.00000000E+00  0.00000000E+00  0.00000000E+00
  0.00000000E+00  0.00000000E+00  0.00000000E+00
  0.00000000E+00  0.00000000E+00  0.00000000E+00
  0.00000000E+00  0.00000000E+00  0.00000000E+00
  0.00000000E+00  0.00000000E+00  0.00000000E+00
  0.00000000E+00  0.00000000E+00  0.00000000E+00
  0.00000000E+00  0.00000000E+00  0.00000000E+00
  0.00000000E+00  0.00000000E+00  0.00000000E+00
  0.00000000E+00  0.00000000E+00  0.00000000E+00
  0.00000000E+00  0.00000000E+00  0.00000000E+00
  0.00000000E+00  0.00000000E+00  0.00000000E+00
  0.00000000E+00  0.00000000E+00  0.00000000E+00
  0.00000000E+00  0.00000000E+00  0.00000000E+00
  0.00000000E+00  0.00000000E+00  0.00000000E+00
  0.00000000E+00  0.00000000E+00  0.00000000E+00
  0.00000000E+00  0.00000000E+00  0.00000000E+00
  0.00000000E+00  0.00000000E+00  0.00000000E+00
  0.00000000E+00  0.00000000E+00  0.00000000E+00
  0.00000000E+00  0.00000000E+00  0.00000000E+00
  0.00000000E+00  0.00000000E+00  0.00000000E+00
  0.00000000E+00  0.00000000E+00  0.00000000E+00
  0.00000000E+00  0.00000000E+00  0.00000000E+00
  0.00000000E+00  0.00000000E+00  0.00000000E+00
  0.00000000E+00  0.00000000E+00  0.00000000E+00
  0.00000000E+00  0.00000000E+00  0.00000000E+00
  0.00000000E+00  0.00000000E+00  0.00000000E+00
  0.00000000E+00  0.00000000E+00  0.00000000E+00
  0.00000000E+00  0.00000000E+00  0.00000000E+00
  0.00000000E+00  0.00000000E+00  0.00000000E+00
  0.00000000E+00  0.00000000E+00  0.00000000E+00
  0.00000000E+00  0.00000000E+00  0.00000000E+00
  0.00000000E+00  0.00000000E+00  0.00000000E+00
  0.00000000E+00  0.00000000E+00  0.00000000E+00
  0.00000000E+00  0.00000000E+00  0.00000000E+00
  0.00000000E+00  0.00000000E+00  0.00000000E+00
  0.00000000E+00  0.00000000E+00  0.00000000E+00
  0.00000000E+00  0.00000000E+00  0.00000000E+00
  0.00000000E+00  0.00000000E+00  0.00000000E+00
  0.00000000E+00  0.00000000E+00  0.00000000E+00
  0.00000000E+00  0.00000000E+00  0.00000000E+00
  0.00000000E+00  0.00000000E+00  0.00000000E+00
  0.00000000E+00  0.00000000E+00  0.00000000E+00
  0.00000000E+00  0.00000000E+00  0.00000000E+00
  0.00000000E+00  0.00000000E+00  0.00000000E+00
  0.00000000E+00  0.00000000E+00  0.00000000E+00
  0.00000000E+00  0.00000000E+00  0.00000000E+00
  0.00000000E+00  0.00000000E+00  0.00000000E+00
  0.00000000E+00  0.00000000E+00  0.00000000E+00
  0.00000000E+00  0.00000000E+00  0.00000000E+00
  0.00000000E+00  0.00000000E+00  0.00000000E+00
  0.00000000E+00  0.00000000E+00  0.00000000E+00
  0.00000000E+00  0.00000000E+00  0.00000000E+00
  0.00000000E+00  0.00000000E+00  0.00000000E+00
  0.00000000E+00  0.00000000E+00  0.00000000E+00
  0.00000000E+00  0.00000000E+00  0.00000000E+00
  0.00000000E+00  0.00000000E+00  0.00000000E+00
  0.00000000E+00  0.00000000E+00  0.00000000E+00
