ortho_FA0000MA0125Cs0875                
   1.00000000000000     
    10.8890140322743001    0.0028367652467157    0.0330603373636680
     0.0025515105147778    9.7632217809748347    0.0325630743013362
     0.0552670406796427    0.0601634071315001   18.3265346326832983
   Pb   I    Cs   C    N    H 
     8    24     7     1     1     6
Direct
  0.1592999637689075  0.1254720822670599  0.4388587370751771
  0.1596744887760038  0.6245969917000024  0.4380986165695132
  0.8376163196884462  0.3730763126971599  0.5602588848246507
  0.8384378401549227  0.8776329973280477  0.5596843921266238
  0.3359685590079851  0.3745167408558335  0.9397997944581583
  0.3355950906769077  0.8762243430865628  0.9404074024691449
  0.6626399134898253  0.1249706637641165  0.0597427937954186
  0.6631331494924558  0.6250781635636293  0.0609505558319091
  0.1650077074773683  0.1251630015067262  0.0026673825518789
  0.1644947459818559  0.6246696087330199  0.0020718586191932
  0.8354073634766439  0.3750285973006209  0.9982151804881177
  0.8353973250637141  0.8755152675849115  0.9982279105826550
  0.3335053049346463  0.3686779577723945  0.4981490419286498
  0.3344319157660492  0.8777007671256475  0.5006093226164038
  0.6654738953152959  0.1251767621226732  0.4981088697665431
  0.6612313230973140  0.6234797755621583  0.5000163362930523
  0.2935704848948898  0.1247284636557402  0.2879317955961830
  0.2936882698439033  0.6252263757528168  0.2876967376090019
  0.7154371470904083  0.3670278140426890  0.7127322102836138
  0.7216985169499198  0.8892698665657991  0.7138064736241971
  0.2051645741458882  0.3740010978437071  0.7879612936626470
  0.2002764008119439  0.8817143808128391  0.7904921079069622
  0.7930356125605970  0.1249314024616488  0.2117951614343687
  0.7943552379182945  0.6249065920328808  0.2135953433608840
  0.0258097949580004  0.1238330602295900  0.6069941903061853
  0.0254420824456405  0.6234358073536436  0.6074899300922703
  0.9756164532922424  0.3767063148911664  0.3905438677800432
  0.9754088167480927  0.8738248071399388  0.3906592660210191
  0.4740716691832574  0.3740083617316803  0.1080190772969627
  0.4742070973894985  0.8751561880946085  0.1082416200737902
  0.5257074970733500  0.1255386644443233  0.8922639526056197
  0.5299471143696153  0.6257843349774836  0.8994227073355188
  0.4243656069980445  0.1244991905628861  0.6753224747175463
  0.5774319913776129  0.3747883069955968  0.3253962677324874
  0.5776963727839292  0.8748521167517388  0.3254140580672318
  0.0762413416746146  0.3751132704183377  0.1725293049281421
  0.0761709758762246  0.8749633864902930  0.1725655382663258
  0.9251896199435694  0.1264965563505866  0.8282432574177291
  0.9239969535071964  0.6248343650581970  0.8271120203299180
  0.4458455351668315  0.6290444826388664  0.7103767347423543
  0.3947920056869390  0.6188402191089432  0.6353087188880482
  0.3616528242553984  0.7118913207421408  0.6152722287604242
  0.3226859781086911  0.5498489980857053  0.6328276552958274
  0.4611734002058544  0.5878453336469813  0.5978905206721318
  0.3731316968241742  0.6642586665080887  0.7471693337220074
  0.4791552261222496  0.5278811594135810  0.7273391833841600
  0.5227948350821575  0.7017787696073617  0.7093076036288409
 
  0.00000000E+00  0.00000000E+00  0.00000000E+00
  0.00000000E+00  0.00000000E+00  0.00000000E+00
  0.00000000E+00  0.00000000E+00  0.00000000E+00
  0.00000000E+00  0.00000000E+00  0.00000000E+00
  0.00000000E+00  0.00000000E+00  0.00000000E+00
  0.00000000E+00  0.00000000E+00  0.00000000E+00
  0.00000000E+00  0.00000000E+00  0.00000000E+00
  0.00000000E+00  0.00000000E+00  0.00000000E+00
  0.00000000E+00  0.00000000E+00  0.00000000E+00
  0.00000000E+00  0.00000000E+00  0.00000000E+00
  0.00000000E+00  0.00000000E+00  0.00000000E+00
  0.00000000E+00  0.00000000E+00  0.00000000E+00
  0.00000000E+00  0.00000000E+00  0.00000000E+00
  0.00000000E+00  0.00000000E+00  0.00000000E+00
  0.00000000E+00  0.00000000E+00  0.00000000E+00
  0.00000000E+00  0.00000000E+00  0.00000000E+00
  0.00000000E+00  0.00000000E+00  0.00000000E+00
  0.00000000E+00  0.00000000E+00  0.00000000E+00
  0.00000000E+00  0.00000000E+00  0.00000000E+00
  0.00000000E+00  0.00000000E+00  0.00000000E+00
  0.00000000E+00  0.00000000E+00  0.00000000E+00
  0.00000000E+00  0.00000000E+00  0.00000000E+00
  0.00000000E+00  0.00000000E+00  0.00000000E+00
  0.00000000E+00  0.00000000E+00  0.00000000E+00
  0.00000000E+00  0.00000000E+00  0.00000000E+00
  0.00000000E+00  0.00000000E+00  0.00000000E+00
  0.00000000E+00  0.00000000E+00  0.00000000E+00
  0.00000000E+00  0.00000000E+00  0.00000000E+00
  0.00000000E+00  0.00000000E+00  0.00000000E+00
  0.00000000E+00  0.00000000E+00  0.00000000E+00
  0.00000000E+00  0.00000000E+00  0.00000000E+00
  0.00000000E+00  0.00000000E+00  0.00000000E+00
  0.00000000E+00  0.00000000E+00  0.00000000E+00
  0.00000000E+00  0.00000000E+00  0.00000000E+00
  0.00000000E+00  0.00000000E+00  0.00000000E+00
  0.00000000E+00  0.00000000E+00  0.00000000E+00
  0.00000000E+00  0.00000000E+00  0.00000000E+00
  0.00000000E+00  0.00000000E+00  0.00000000E+00
  0.00000000E+00  0.00000000E+00  0.00000000E+00
  0.00000000E+00  0.00000000E+00  0.00000000E+00
  0.00000000E+00  0.00000000E+00  0.00000000E+00
  0.00000000E+00  0.00000000E+00  0.00000000E+00
  0.00000000E+00  0.00000000E+00  0.00000000E+00
  0.00000000E+00  0.00000000E+00  0.00000000E+00
  0.00000000E+00  0.00000000E+00  0.00000000E+00
  0.00000000E+00  0.00000000E+00  0.00000000E+00
  0.00000000E+00  0.00000000E+00  0.00000000E+00
