ortho_FA0500MA0000Cs0500                
   1.00000000000000     
    11.3351254679518831   -0.1122658385587200    0.0689795864119665
    -0.1003784347159301    9.5590136818042950   -0.0707313250505145
     0.1187793710277486   -0.1336922884033140   18.6165405764107064
   Pb   I    Cs   C    N    H 
     8    24     4     4     8    20
Direct
  0.1587167630596358  0.1112212054410677  0.4504974456583943
  0.1634616007325699  0.6126083067792972  0.4449121169214788
  0.8411761439444316  0.3507222277768391  0.5659453000361880
  0.8448720770322271  0.8492977812786037  0.5660910364971762
  0.3451213041838144  0.3693491804018764  0.9343311815857397
  0.3369058708589407  0.8658787334079526  0.9335820569438122
  0.6763488746380228  0.1212559869950408  0.0381575454462765
  0.6674394693733805  0.6337594454038891  0.0389220339724955
  0.1790788840168172  0.1183196102708630  0.9988047063838590
  0.1710286376953342  0.6107369875513284  0.9983808553914917
  0.8308656567373143  0.3858471262100136  0.9762562723600121
  0.8481724529946230  0.8705185917702964  0.9810097400192879
  0.3315467763837803  0.3617394390745076  0.5072015677912127
  0.3304927806522733  0.8637912131512628  0.5087999940155421
  0.6674698841682366  0.0945405633722644  0.5154697829112922
  0.6712380604907595  0.5965133441555629  0.5104894584194538
  0.2760176070841982  0.1192040603168703  0.2968962112741063
  0.2781476229929643  0.6433991420046229  0.2948031341500911
  0.6994999779051494  0.3747682386920786  0.7116327057015769
  0.7053020252625547  0.8361772048552589  0.7112944851304670
  0.2264787034623023  0.3742303622027429  0.7827965078130639
  0.2244486784561724  0.8426970405541607  0.7799844565352713
  0.7947976028093898  0.1216314804112377  0.1887690736255090
  0.7849487004846947  0.6461653865995253  0.1920771697636905
  0.0257662499728750  0.1089602091509942  0.6127974097184937
  0.0277829807362317  0.6053056985625457  0.6112294050470218
  0.9769788554223411  0.3525152156447210  0.4014384118946607
  0.9785184328506147  0.8528688998720447  0.4007899073048352
  0.4955953620786361  0.3677691603816891  0.0893449385023347
  0.4823034078764790  0.8799638686810152  0.0874281736952276
  0.5158265609781186  0.1151422720209308  0.8816567292358347
  0.5248316490287864  0.6238729155135244  0.8834337370266625
  0.4285136810367093  0.1094947201503843  0.6723654587989831
  0.4304988527421894  0.6091650448129572  0.6658344921821699
  0.0778999031694923  0.8772019051324036  0.1681443136601759
  0.9378144247888633  0.6170972690986859  0.8165556909610796
  0.5615370175417608  0.8709809460518586  0.3376622858478313
  0.5586840419188940  0.3662789413968479  0.3399931306905321
  0.0873816561192934  0.3649486299079073  0.1818069388610365
  0.9230234588626547  0.1650473757288319  0.8186648087826969
  0.6571057107329440  0.8025699293399823  0.3531318769609357
  0.5428032420514556  0.9293530556286989  0.2755944249582265
  0.6441754896373552  0.2766463100952209  0.3474063527675399
  0.5502504249701089  0.4536387245525368  0.2865637726820687
  0.1997177006269955  0.3611492167613200  0.1643638169693708
  0.0034245176639608  0.4027139679716720  0.1387622391372934
  0.0243250001950315  0.1032772980982841  0.8251039905834467
  0.8178204836595626  0.1056889001074291  0.8180628554027268
  0.4931260307537529  0.8807818459648633  0.3793265497339636
  0.6644098080406248  0.7555984827298744  0.4021562668662225
  0.7211592465383108  0.7823114524642355  0.3150836720675295
  0.6033042651728714  0.9273784223518473  0.2342395287439987
  0.4647593221309484  0.9800340414067525  0.2683438998870773
  0.4890718575627416  0.3679494064451084  0.3812913033807967
  0.6467610900893873  0.2168569082545753  0.3927976050135457
  0.7085538238339470  0.2619397802654378  0.3089964110782289
  0.6148067106271466  0.4661039000014369  0.2478875781811321
  0.4775970254909115  0.5165359483522958  0.2845730415712805
  0.0623802792949821  0.3343537344877545  0.2363039885293840
  0.2576679188110457  0.3263931023782963  0.2015752404985290
  0.2320975255861597  0.3905756600810850  0.1152466573035112
  0.0181509066166870  0.4303936010619936  0.0863443517592835
  0.9178403760824574  0.4024171500100955  0.1566872229918980
  0.9263609482385989  0.2786506116052361  0.8148001965292964
  0.1002643934505241  0.1639022893040492  0.8216321202977298
  0.0352193342476849  0.9975208294941839  0.8254387126565627
  0.8035048412328966 -0.0001915289084135  0.8142552869208741
  0.7474348292880999  0.1669924648215860  0.8066995546654341
 
  0.00000000E+00  0.00000000E+00  0.00000000E+00
  0.00000000E+00  0.00000000E+00  0.00000000E+00
  0.00000000E+00  0.00000000E+00  0.00000000E+00
  0.00000000E+00  0.00000000E+00  0.00000000E+00
  0.00000000E+00  0.00000000E+00  0.00000000E+00
  0.00000000E+00  0.00000000E+00  0.00000000E+00
  0.00000000E+00  0.00000000E+00  0.00000000E+00
  0.00000000E+00  0.00000000E+00  0.00000000E+00
  0.00000000E+00  0.00000000E+00  0.00000000E+00
  0.00000000E+00  0.00000000E+00  0.00000000E+00
  0.00000000E+00  0.00000000E+00  0.00000000E+00
  0.00000000E+00  0.00000000E+00  0.00000000E+00
  0.00000000E+00  0.00000000E+00  0.00000000E+00
  0.00000000E+00  0.00000000E+00  0.00000000E+00
  0.00000000E+00  0.00000000E+00  0.00000000E+00
  0.00000000E+00  0.00000000E+00  0.00000000E+00
  0.00000000E+00  0.00000000E+00  0.00000000E+00
  0.00000000E+00  0.00000000E+00  0.00000000E+00
  0.00000000E+00  0.00000000E+00  0.00000000E+00
  0.00000000E+00  0.00000000E+00  0.00000000E+00
  0.00000000E+00  0.00000000E+00  0.00000000E+00
  0.00000000E+00  0.00000000E+00  0.00000000E+00
  0.00000000E+00  0.00000000E+00  0.00000000E+00
  0.00000000E+00  0.00000000E+00  0.00000000E+00
  0.00000000E+00  0.00000000E+00  0.00000000E+00
  0.00000000E+00  0.00000000E+00  0.00000000E+00
  0.00000000E+00  0.00000000E+00  0.00000000E+00
  0.00000000E+00  0.00000000E+00  0.00000000E+00
  0.00000000E+00  0.00000000E+00  0.00000000E+00
  0.00000000E+00  0.00000000E+00  0.00000000E+00
  0.00000000E+00  0.00000000E+00  0.00000000E+00
  0.00000000E+00  0.00000000E+00  0.00000000E+00
  0.00000000E+00  0.00000000E+00  0.00000000E+00
  0.00000000E+00  0.00000000E+00  0.00000000E+00
  0.00000000E+00  0.00000000E+00  0.00000000E+00
  0.00000000E+00  0.00000000E+00  0.00000000E+00
  0.00000000E+00  0.00000000E+00  0.00000000E+00
  0.00000000E+00  0.00000000E+00  0.00000000E+00
  0.00000000E+00  0.00000000E+00  0.00000000E+00
  0.00000000E+00  0.00000000E+00  0.00000000E+00
  0.00000000E+00  0.00000000E+00  0.00000000E+00
  0.00000000E+00  0.00000000E+00  0.00000000E+00
  0.00000000E+00  0.00000000E+00  0.00000000E+00
  0.00000000E+00  0.00000000E+00  0.00000000E+00
  0.00000000E+00  0.00000000E+00  0.00000000E+00
  0.00000000E+00  0.00000000E+00  0.00000000E+00
  0.00000000E+00  0.00000000E+00  0.00000000E+00
  0.00000000E+00  0.00000000E+00  0.00000000E+00
  0.00000000E+00  0.00000000E+00  0.00000000E+00
  0.00000000E+00  0.00000000E+00  0.00000000E+00
  0.00000000E+00  0.00000000E+00  0.00000000E+00
  0.00000000E+00  0.00000000E+00  0.00000000E+00
  0.00000000E+00  0.00000000E+00  0.00000000E+00
  0.00000000E+00  0.00000000E+00  0.00000000E+00
  0.00000000E+00  0.00000000E+00  0.00000000E+00
  0.00000000E+00  0.00000000E+00  0.00000000E+00
  0.00000000E+00  0.00000000E+00  0.00000000E+00
  0.00000000E+00  0.00000000E+00  0.00000000E+00
  0.00000000E+00  0.00000000E+00  0.00000000E+00
  0.00000000E+00  0.00000000E+00  0.00000000E+00
  0.00000000E+00  0.00000000E+00  0.00000000E+00
  0.00000000E+00  0.00000000E+00  0.00000000E+00
  0.00000000E+00  0.00000000E+00  0.00000000E+00
  0.00000000E+00  0.00000000E+00  0.00000000E+00
  0.00000000E+00  0.00000000E+00  0.00000000E+00
  0.00000000E+00  0.00000000E+00  0.00000000E+00
  0.00000000E+00  0.00000000E+00  0.00000000E+00
  0.00000000E+00  0.00000000E+00  0.00000000E+00
