hexa_FA0375MA0375Cs0250                 
   1.00000000000000     
    18.5887188843948898    0.1166187742109933    0.2046501174997711
    -9.2065080198914355   14.5787768564835769   -0.0535989714530956
     0.0844872226691412    0.0254242251934376    7.7349335151694261
   Pb   I    N    C    H    Cs
     8    24     9     6    33     2
Direct
  0.5059838192163811  0.4980068316347642  0.9370460434730609
  0.5076213567465218  0.0093627363316969  0.9361103638649397
  0.9970006612075941  0.4941987266814621  0.9381045338692983
  0.0060003609403036  0.0073757137441394  0.9419263191891329
  0.0086827574704890  0.0075247448954104  0.4431062446854399
  0.9988844194602269  0.4965476818603187  0.4407170458762859
  0.5052533835902923  0.0063682540513255  0.4371803488274354
  0.5076124294840353  0.4999951902325984  0.4325204870264499
  0.4231930289161429  0.0869109274290727  0.1917493141768985
  0.4370652954212607  0.5947379666851091  0.1871899378747751
  0.9327808665604148  0.1007159908151562  0.2101673666355507
  0.9142675724609494  0.5767293065210067  0.1905373502133260
  0.4215637955011267  0.3229061999165018  0.1882750135472730
  0.4297769252875114  0.8297173983983450  0.1815678358241035
  0.9183910151736487  0.3214039543050702  0.1970656784031086
  0.9117614696391955  0.8323137994004237  0.1926007484280900
  0.1719485879647262  0.0921501367899469  0.1815709290897032
  0.1623929679859326  0.5824214466504374  0.1816282369251641
  0.6712410785855900  0.1020384909403931  0.1863435172634470
  0.6705928114244496  0.5853795546357823  0.1765937474791460
  0.0845097147475798  0.4145305862097422  0.6794853064496736
  0.0862080416694645  0.9207332810894492  0.6960695928501712
  0.5842150302388964  0.4102486425284232  0.6799480750259774
  0.5915926351831304  0.9205844928343595  0.6806923025683994
  0.1041153187239106  0.1848574569700439  0.6874036560450582
  0.0869559391808193  0.6743302888278858  0.6926524942442127
  0.5965061685038424  0.1817714510773903  0.6796956399672269
  0.5907607359245503  0.6793051593954753  0.6827230613443437
  0.3424966140995760  0.4170557718017647  0.6886847417281253
  0.3422306085716612  0.9226462517265336  0.6978981977428462
  0.8333577980355555  0.4088114130083038  0.6947994967486552
  0.8420617619879172  0.9240665602401391  0.6935190058598191
  0.2241714031676868  0.8209772219791898  0.1877175737162947
  0.0970625229189302  0.8173037913597155  0.1867937412586007
  0.2766858493720673  0.6788151521440532  0.6860942176783348
  0.7783827774029081  0.6809169758580477  0.6854947979033033
  0.4010069710955150  0.6772874731972037  0.6884121182563812
  0.9032140365697742  0.6807099897734655  0.6877623868710342
  0.6215348125125427  0.8171435368762181  0.1983083285353969
  0.7952277754645550  0.1288705512526435  0.5953835148755805
  0.1231875232345955  0.3208814338453471  0.2172452592976118
  0.1801399889841258  0.8605956144517470  0.1869982416722648
  0.3181663951728658  0.6366409717376504  0.6866792137278985
  0.8203450826857857  0.6392008216993063  0.6862561347916351
  0.7149991668565121  0.8822840781320863  0.1801557648645050
  0.8479172539589768  0.1627512877425027  0.7534961530386972
  0.2154335901807423  0.3838788419787725  0.1766137028205086
  0.2152566200001731  0.9353300389457546  0.1866537655746485
  0.2809067077267320  0.5618140662940615  0.6855809068149133
  0.7835992594273467  0.5644152704440633  0.6855331837642289
  0.1969675974202323  0.7511241071154086  0.1869328247210594
  0.2888172175118862  0.8598394066235345  0.1866454306624212
  0.0669595623718024  0.8528103834045497  0.1860634889288802
  0.0579998744075073  0.7473391588018832  0.1866882882484346
  0.3056291202467941  0.7488058337063694  0.6882169048820416
  0.8070864621365206  0.7508283111936640  0.6867789377543559
  0.2117846156389004  0.6422508128890836  0.6857003155105234
  0.7136120799420034  0.6442245804752784  0.6848625359473656
  0.4289130035715845  0.6396500257917154  0.6884783351149824
  0.9319412838005970  0.6439064164092267  0.6885232378244228
  0.4413003132008180  0.7469089909123785  0.6893256735028181
  0.9431858729943318  0.7505471916424076  0.6889292343789277
  0.5865425029817003  0.8411697133481457  0.1421651418831728
  0.6021614180582777  0.8049042453451043  0.3268351038018932
  0.6007059138633708  0.7534540271147184  0.1447891391081301
  0.7303961417996070  0.9486244669531255  0.2309998658031816
  0.7473782667411626  0.8556619261195677  0.2529145964922773
  0.7337719894762015  0.8892350525308862  0.0431644681402712
  0.7807035055277989  0.1752253013384846  0.5502495335983062
  0.7375820263073972  0.0676208905070777  0.6200121737249360
  0.8264465668036132  0.1171930850354812  0.4953728017856215
  0.8128546885539003  0.1751884872789663  0.8541587756045549
  0.8597644774100484  0.1101003212170656  0.7963415355374466
  0.9078513477605941  0.2260610671634691  0.7215274774763115
  0.0861244221000478  0.3438091589303742  0.1674629908934971
  0.1111021960244684  0.3139804707816891  0.3494120341476041
  0.0988507881331483  0.2553057475765511  0.1700670622328276
  0.2348498878237113  0.4519397136695715  0.2246539786035462
  0.2509396566459273  0.3581361315514033  0.2399808877233509
  0.2258597757315614  0.3865551242356352  0.0362547163390429
  0.6666786261357902  0.3469165640488663  0.1842591502563956
  0.3187284229336531  0.1715452828711542  0.6876389142213862
 
  0.00000000E+00  0.00000000E+00  0.00000000E+00
  0.00000000E+00  0.00000000E+00  0.00000000E+00
  0.00000000E+00  0.00000000E+00  0.00000000E+00
  0.00000000E+00  0.00000000E+00  0.00000000E+00
  0.00000000E+00  0.00000000E+00  0.00000000E+00
  0.00000000E+00  0.00000000E+00  0.00000000E+00
  0.00000000E+00  0.00000000E+00  0.00000000E+00
  0.00000000E+00  0.00000000E+00  0.00000000E+00
  0.00000000E+00  0.00000000E+00  0.00000000E+00
  0.00000000E+00  0.00000000E+00  0.00000000E+00
  0.00000000E+00  0.00000000E+00  0.00000000E+00
  0.00000000E+00  0.00000000E+00  0.00000000E+00
  0.00000000E+00  0.00000000E+00  0.00000000E+00
  0.00000000E+00  0.00000000E+00  0.00000000E+00
  0.00000000E+00  0.00000000E+00  0.00000000E+00
  0.00000000E+00  0.00000000E+00  0.00000000E+00
  0.00000000E+00  0.00000000E+00  0.00000000E+00
  0.00000000E+00  0.00000000E+00  0.00000000E+00
  0.00000000E+00  0.00000000E+00  0.00000000E+00
  0.00000000E+00  0.00000000E+00  0.00000000E+00
  0.00000000E+00  0.00000000E+00  0.00000000E+00
  0.00000000E+00  0.00000000E+00  0.00000000E+00
  0.00000000E+00  0.00000000E+00  0.00000000E+00
  0.00000000E+00  0.00000000E+00  0.00000000E+00
  0.00000000E+00  0.00000000E+00  0.00000000E+00
  0.00000000E+00  0.00000000E+00  0.00000000E+00
  0.00000000E+00  0.00000000E+00  0.00000000E+00
  0.00000000E+00  0.00000000E+00  0.00000000E+00
  0.00000000E+00  0.00000000E+00  0.00000000E+00
  0.00000000E+00  0.00000000E+00  0.00000000E+00
  0.00000000E+00  0.00000000E+00  0.00000000E+00
  0.00000000E+00  0.00000000E+00  0.00000000E+00
  0.00000000E+00  0.00000000E+00  0.00000000E+00
  0.00000000E+00  0.00000000E+00  0.00000000E+00
  0.00000000E+00  0.00000000E+00  0.00000000E+00
  0.00000000E+00  0.00000000E+00  0.00000000E+00
  0.00000000E+00  0.00000000E+00  0.00000000E+00
  0.00000000E+00  0.00000000E+00  0.00000000E+00
  0.00000000E+00  0.00000000E+00  0.00000000E+00
  0.00000000E+00  0.00000000E+00  0.00000000E+00
  0.00000000E+00  0.00000000E+00  0.00000000E+00
  0.00000000E+00  0.00000000E+00  0.00000000E+00
  0.00000000E+00  0.00000000E+00  0.00000000E+00
  0.00000000E+00  0.00000000E+00  0.00000000E+00
  0.00000000E+00  0.00000000E+00  0.00000000E+00
  0.00000000E+00  0.00000000E+00  0.00000000E+00
  0.00000000E+00  0.00000000E+00  0.00000000E+00
  0.00000000E+00  0.00000000E+00  0.00000000E+00
  0.00000000E+00  0.00000000E+00  0.00000000E+00
  0.00000000E+00  0.00000000E+00  0.00000000E+00
  0.00000000E+00  0.00000000E+00  0.00000000E+00
  0.00000000E+00  0.00000000E+00  0.00000000E+00
  0.00000000E+00  0.00000000E+00  0.00000000E+00
  0.00000000E+00  0.00000000E+00  0.00000000E+00
  0.00000000E+00  0.00000000E+00  0.00000000E+00
  0.00000000E+00  0.00000000E+00  0.00000000E+00
  0.00000000E+00  0.00000000E+00  0.00000000E+00
  0.00000000E+00  0.00000000E+00  0.00000000E+00
  0.00000000E+00  0.00000000E+00  0.00000000E+00
  0.00000000E+00  0.00000000E+00  0.00000000E+00
  0.00000000E+00  0.00000000E+00  0.00000000E+00
  0.00000000E+00  0.00000000E+00  0.00000000E+00
  0.00000000E+00  0.00000000E+00  0.00000000E+00
  0.00000000E+00  0.00000000E+00  0.00000000E+00
  0.00000000E+00  0.00000000E+00  0.00000000E+00
  0.00000000E+00  0.00000000E+00  0.00000000E+00
  0.00000000E+00  0.00000000E+00  0.00000000E+00
  0.00000000E+00  0.00000000E+00  0.00000000E+00
  0.00000000E+00  0.00000000E+00  0.00000000E+00
  0.00000000E+00  0.00000000E+00  0.00000000E+00
  0.00000000E+00  0.00000000E+00  0.00000000E+00
  0.00000000E+00  0.00000000E+00  0.00000000E+00
  0.00000000E+00  0.00000000E+00  0.00000000E+00
  0.00000000E+00  0.00000000E+00  0.00000000E+00
  0.00000000E+00  0.00000000E+00  0.00000000E+00
  0.00000000E+00  0.00000000E+00  0.00000000E+00
  0.00000000E+00  0.00000000E+00  0.00000000E+00
  0.00000000E+00  0.00000000E+00  0.00000000E+00
  0.00000000E+00  0.00000000E+00  0.00000000E+00
  0.00000000E+00  0.00000000E+00  0.00000000E+00
  0.00000000E+00  0.00000000E+00  0.00000000E+00
  0.00000000E+00  0.00000000E+00  0.00000000E+00
