ortho_FA0375MA0125Cs0500                
   1.00000000000000     
    10.9317642616571309   -0.0818763764799948    0.1678421053420143
    -0.0739145068732067    9.6208427577094504   -0.0961954681071200
     0.2819217661633813   -0.1794402706867664   19.1054980139968542
   Pb   I    Cs   C    N    H 
     8    24     4     4     7    21
Direct
  0.1582699339604664  0.1111905935206844  0.4459014614104405
  0.1587411483021420  0.6072019304243494  0.4303250587931957
  0.8392375828328621  0.3516623768431411  0.5640320633616710
  0.8507994369386913  0.8545784345705123  0.5568425189176237
  0.3474540221129951  0.3901471512693302  0.9362460307028064
  0.3374680565885692  0.8946983213930411  0.9256825984043643
  0.6684120264663914  0.1373527775755784  0.0580901037102112
  0.6524070209890460  0.6378496402352472  0.0478734496212156
  0.1729365294224506  0.1355478618323110  0.9938372042944666
  0.1694327746589985  0.6460281893127643  0.9834664459760500
  0.8321868253343071  0.3944310559781826  0.9966729071046008
  0.8418435573686575  0.8851187968360190  0.9962334970314978
  0.3362950143280255  0.3754166475850534  0.4887853514985652
  0.3316211341060709  0.8538751637830518  0.4939823306725055
  0.6698724440033144  0.0964343430962326  0.5066518502032221
  0.6655855630897749  0.6011052256417871  0.5121966749745690
  0.3026114092070494  0.1000864217636441  0.3022725358871533
  0.2922955651945063  0.6124772656894456  0.2861580784063142
  0.7137605191351817  0.3648733266342952  0.7098787638097118
  0.7344528790514026  0.8271405322499279  0.7077076191901307
  0.2313250410188459  0.4018990161065072  0.7915199530269517
  0.1941314107818541  0.8769491145382031  0.7873695993212689
  0.7937349553948174  0.1290895727099099  0.2006590073280957
  0.7891794491715607  0.6382457212655234  0.1931001540182142
  0.0305185230274213  0.1125661813309039  0.6077018506062658
  0.0368980997956918  0.6068907105419501  0.6000126018834679
  0.9690432100897329  0.3463038246281064  0.3926597263972781
  0.9766225349857970  0.8640941143372485  0.3915000274091233
  0.4673568724921461  0.3836894391845151  0.1024425503538964
  0.4605058011448879  0.8918631914654258  0.0892604813835091
  0.5481983060236427  0.1446439556581840  0.8941025782728174
  0.5414277789958029  0.6371231434172401  0.8887587735914855
  0.4160132199873309  0.6287245692943753  0.6653901228474954
  0.5814279443170716  0.3708830119249111  0.3269630671223939
  0.0930372793502284  0.8786665665772639  0.1712559858553662
  0.9296523856272927  0.5983703214904366  0.8227190224130909
  0.0583137588986238  0.3809209046969658  0.1786487674693761
  0.4133437723469623  0.1394358727146276  0.6850585949947687
  0.5679756186805773  0.8529964975996870  0.3318365524697369
  0.9607242315251633  0.1819321665442374  0.8271044748446353
  0.1469279897441888  0.2956951638355363  0.1916543181153174
  0.0653146844055760  0.4774609730359569  0.1310939412992856
  0.4939530249673535  0.0613790821000579  0.7141866529972596
  0.3808756077280567  0.1287462744573363  0.6196609107265847
  0.6614757899345562  0.7817477771759990  0.3527481520620069
  0.5572063709610588  0.8963414551678631  0.2678139355156628
  0.8789878414020418  0.0564618858831877  0.8281237989022079
  0.9717617554866312  0.3700002792040867  0.2084724307617589
  0.1425242393074515  0.2354939930226159  0.2353319836967092
  0.2318541092833753  0.3052371120775991  0.1679634408391688
  0.1400205465335828  0.4929535826784555  0.0983302329607297
  0.9874144023037197  0.5306558517283004  0.1211147872150694
  0.3685317344647016  0.2193462503711889  0.7182087257938254
  0.5153226319962770  0.0825647463640457  0.7653189373002747
  0.5495707802987466  0.9918843996853896  0.6876531972669803
  0.4162723535530155  0.0569314061493288  0.5846003517588644
  0.3204129246588871  0.1971760727729918  0.6005104723277666
  0.4948886781423429  0.8779123733364245  0.3703882186492160
  0.6652279727658766  0.7508684606217194  0.4037837604656381
  0.7317519993458661  0.7550143230267260  0.3185491499335800
  0.6215216206760915  0.8768571682882125  0.2290768732159372
  0.4799617763534580  0.9489175475531801  0.2559524087712222
  0.7892800515890122  0.0814070007674376  0.8187075467184415
  0.8787427203852652  0.0072890682831947  0.8764672937719256
  0.9052288898592533  0.9847021867525304  0.7895775523917763
  0.9307143785824052  0.2519902217586712  0.8698723274892681
  0.0547770768738055  0.1492126533106735  0.8346161579036413
  0.9531009713523191  0.2307596947835160  0.7761107685618666
 
  0.00000000E+00  0.00000000E+00  0.00000000E+00
  0.00000000E+00  0.00000000E+00  0.00000000E+00
  0.00000000E+00  0.00000000E+00  0.00000000E+00
  0.00000000E+00  0.00000000E+00  0.00000000E+00
  0.00000000E+00  0.00000000E+00  0.00000000E+00
  0.00000000E+00  0.00000000E+00  0.00000000E+00
  0.00000000E+00  0.00000000E+00  0.00000000E+00
  0.00000000E+00  0.00000000E+00  0.00000000E+00
  0.00000000E+00  0.00000000E+00  0.00000000E+00
  0.00000000E+00  0.00000000E+00  0.00000000E+00
  0.00000000E+00  0.00000000E+00  0.00000000E+00
  0.00000000E+00  0.00000000E+00  0.00000000E+00
  0.00000000E+00  0.00000000E+00  0.00000000E+00
  0.00000000E+00  0.00000000E+00  0.00000000E+00
  0.00000000E+00  0.00000000E+00  0.00000000E+00
  0.00000000E+00  0.00000000E+00  0.00000000E+00
  0.00000000E+00  0.00000000E+00  0.00000000E+00
  0.00000000E+00  0.00000000E+00  0.00000000E+00
  0.00000000E+00  0.00000000E+00  0.00000000E+00
  0.00000000E+00  0.00000000E+00  0.00000000E+00
  0.00000000E+00  0.00000000E+00  0.00000000E+00
  0.00000000E+00  0.00000000E+00  0.00000000E+00
  0.00000000E+00  0.00000000E+00  0.00000000E+00
  0.00000000E+00  0.00000000E+00  0.00000000E+00
  0.00000000E+00  0.00000000E+00  0.00000000E+00
  0.00000000E+00  0.00000000E+00  0.00000000E+00
  0.00000000E+00  0.00000000E+00  0.00000000E+00
  0.00000000E+00  0.00000000E+00  0.00000000E+00
  0.00000000E+00  0.00000000E+00  0.00000000E+00
  0.00000000E+00  0.00000000E+00  0.00000000E+00
  0.00000000E+00  0.00000000E+00  0.00000000E+00
  0.00000000E+00  0.00000000E+00  0.00000000E+00
  0.00000000E+00  0.00000000E+00  0.00000000E+00
  0.00000000E+00  0.00000000E+00  0.00000000E+00
  0.00000000E+00  0.00000000E+00  0.00000000E+00
  0.00000000E+00  0.00000000E+00  0.00000000E+00
  0.00000000E+00  0.00000000E+00  0.00000000E+00
  0.00000000E+00  0.00000000E+00  0.00000000E+00
  0.00000000E+00  0.00000000E+00  0.00000000E+00
  0.00000000E+00  0.00000000E+00  0.00000000E+00
  0.00000000E+00  0.00000000E+00  0.00000000E+00
  0.00000000E+00  0.00000000E+00  0.00000000E+00
  0.00000000E+00  0.00000000E+00  0.00000000E+00
  0.00000000E+00  0.00000000E+00  0.00000000E+00
  0.00000000E+00  0.00000000E+00  0.00000000E+00
  0.00000000E+00  0.00000000E+00  0.00000000E+00
  0.00000000E+00  0.00000000E+00  0.00000000E+00
  0.00000000E+00  0.00000000E+00  0.00000000E+00
  0.00000000E+00  0.00000000E+00  0.00000000E+00
  0.00000000E+00  0.00000000E+00  0.00000000E+00
  0.00000000E+00  0.00000000E+00  0.00000000E+00
  0.00000000E+00  0.00000000E+00  0.00000000E+00
  0.00000000E+00  0.00000000E+00  0.00000000E+00
  0.00000000E+00  0.00000000E+00  0.00000000E+00
  0.00000000E+00  0.00000000E+00  0.00000000E+00
  0.00000000E+00  0.00000000E+00  0.00000000E+00
  0.00000000E+00  0.00000000E+00  0.00000000E+00
  0.00000000E+00  0.00000000E+00  0.00000000E+00
  0.00000000E+00  0.00000000E+00  0.00000000E+00
  0.00000000E+00  0.00000000E+00  0.00000000E+00
  0.00000000E+00  0.00000000E+00  0.00000000E+00
  0.00000000E+00  0.00000000E+00  0.00000000E+00
  0.00000000E+00  0.00000000E+00  0.00000000E+00
  0.00000000E+00  0.00000000E+00  0.00000000E+00
  0.00000000E+00  0.00000000E+00  0.00000000E+00
  0.00000000E+00  0.00000000E+00  0.00000000E+00
  0.00000000E+00  0.00000000E+00  0.00000000E+00
  0.00000000E+00  0.00000000E+00  0.00000000E+00
