cubic_FA0000MA0750Cs0250                
   1.00000000000000     
    12.7241269940989792    0.0591162066033095    0.2147606079911106
     0.0597490645409250   12.7032230052436326   -0.0245540308467039
     0.2150059196018750   -0.0244605542819280   12.7154957353018663
   Cs   I    Pb   C    N    H 
     2    24     8     6     6    36
Direct
  0.2589324388981270  0.2535536354042955  0.7362763334798775
  0.2497900469110676  0.7286729504017817  0.7468251434356478
  0.0329550300413913  0.9678061223547949  0.2620878877900316
  0.0175446867685442  0.0320747493978346  0.7636139942873850
  0.0071792865174531  0.5157412988801002  0.2678947802501325
  0.0377458607055734  0.4801616361223097  0.7681167423001181
  0.5283519442009544  0.0030776047131143  0.2585427657564253
  0.5336807608383776  0.0001014256855802  0.7587913334503443
  0.5373789578599246  0.4781852742112889  0.2589352803271650
  0.4831885411672678  0.5108814361867743  0.7614101588899738
  0.9968102073098455  0.2545691422496435  0.0462424698254534
  0.0009369974887562  0.2453134496012253  0.4980923022789188
  0.9832174301869031  0.7551840075441013  0.0063105747373240
  0.0115061253636790  0.7463614255877126  0.5520312832414839
  0.4858431419628844  0.2535293876623305  0.9920681506300469
  0.5073152621053965  0.2492278957883301  0.5246451602800175
  0.4988247858171163  0.7533640927386421  0.0269326670707045
  0.4887078073067146  0.7492861298119646  0.5208083767590977
  0.2589669212598290  0.4895188531179954  0.5101335784985914
  0.2505263690984906  0.5230733679128260  0.0245792280318478
  0.2624172906927080  0.0136996238454636  0.5206371655541780
  0.2553069683836480  0.9941496572487897  0.0015047961996583
  0.7576157508908509  0.4955929068696031  0.5471642599489501
  0.7522291884961073  0.5034686919166080  0.0038436961768095
  0.7639287489245619  0.9837095125922940  0.5124798211901881
  0.7547093813847930  0.0185225763085399  0.0215101278450780
  0.5030407465997193  0.0057556477469735  0.0065799824013116
  0.5086925708097083  0.9972336144926414  0.5038856076328408
  0.5011305421830362  0.5024324060513453  0.0084793857366384
  0.5072432442246715  0.4977955759219426  0.5067976286352874
  0.0039840878869149  0.0047017328772545  0.0075013023993753
  0.0135855890223776  0.9914444689344524  0.5129504679187028
  0.0005402062848222  0.5040428118334190  0.0132329810330125
  0.0084754480647668  0.4984631781042176  0.5140924697059702
  0.2807824846735538  0.2696745336756147  0.2610042519926996
  0.7563981184464063  0.7351131623865472  0.2897929524914014
  0.7667869863511280  0.2490504674601766  0.2921665584264763
  0.7696813267038659  0.2685296084144529  0.7880832520788337
  0.2695735891562206  0.7422827082618706  0.2909851573430530
  0.7655246466479843  0.7538789406299063  0.7851169927888764
  0.1735703679934733  0.2231793502917657  0.2602092599675744
  0.7394927999014849  0.7693327699818335  0.1794634356392052
  0.7274941725076368  0.2618730165497475  0.1837663570931830
  0.7256782727735543  0.2184525731239578  0.6929703245092187
  0.2308336478409758  0.7587948903673690  0.1829022442849207
  0.7254209140779251  0.7478258673643875  0.6765756381245326
  0.1303022923171085  0.2498792714937808  0.1971032346175885
  0.1292626893667176  0.2412718919440994  0.3287292107284261
  0.1748733737597830  0.1416227641939517  0.2544436829492496
  0.2729091813019863  0.3552996447556179  0.2694429762050768
  0.3226750850265456  0.2371343914035591  0.3275016649536975
  0.3230046165649232  0.2499116570174432  0.1868153783880301
  0.7157987163635394  0.8476225114057945  0.1758737732539378
  0.6811672192745581  0.7262968910018827  0.1440155287026873
  0.8079659470312659  0.7617425063187665  0.1323730899648846
  0.6817340990650080  0.7421327471040237  0.3349376728268672
  0.7844121724874161  0.6532891560313829  0.2886233073173933
  0.8154275149590745  0.7862667964648371  0.3236905094321739
  0.6669800488910536  0.3176956882157168  0.1830711978393884
  0.7003085306435530  0.1912949508187534  0.1539121154510892
  0.7872294797907076  0.2865312380869287  0.1321777774605314
  0.7006933774755080  0.2270883033176564  0.3447945973333455
  0.8276127603482325  0.1874256153557160  0.2909815533651268
  0.7998085595058501  0.3240817775336075  0.3172186027324245
  0.6662942173729267  0.2633497811785267  0.6601684249073434
  0.6919271969123720  0.1457734110154068  0.7101587876746426
  0.7827333125335271  0.2064447602153025  0.6341962667593398
  0.7076814178053151  0.2725356291101397  0.8499511249887917
  0.8357728021825616  0.2199776953208697  0.8134631972493175
  0.7965315361318549  0.3477846834052573  0.7674679284201996
  0.1584789261474568  0.7974647872890986  0.1851833428880412
  0.2234223460144787  0.6872676207799335  0.1427503745427646
  0.2819724495937285  0.8042699019877894  0.1373933449275188
  0.2120158459456712  0.6949694416664365  0.3355283994456512
  0.3454891243142137  0.7009484442551285  0.2851440402565296
  0.2784133174607255  0.8191904177527887  0.3288110181368226
  0.6440497613379480  0.7524902694265767  0.6749401858604407
  0.7469026894096042  0.6766038976734502  0.6396265549236718
  0.7537389154731556  0.8090899196699729  0.6294843229232899
  0.7331508804220470  0.6885422535411985  0.8315777857120252
  0.8515033902904379  0.7481327463748562  0.7803503370338185
  0.7407844321455964  0.8294171936286747  0.8203014282566519
 
  0.00000000E+00  0.00000000E+00  0.00000000E+00
  0.00000000E+00  0.00000000E+00  0.00000000E+00
  0.00000000E+00  0.00000000E+00  0.00000000E+00
  0.00000000E+00  0.00000000E+00  0.00000000E+00
  0.00000000E+00  0.00000000E+00  0.00000000E+00
  0.00000000E+00  0.00000000E+00  0.00000000E+00
  0.00000000E+00  0.00000000E+00  0.00000000E+00
  0.00000000E+00  0.00000000E+00  0.00000000E+00
  0.00000000E+00  0.00000000E+00  0.00000000E+00
  0.00000000E+00  0.00000000E+00  0.00000000E+00
  0.00000000E+00  0.00000000E+00  0.00000000E+00
  0.00000000E+00  0.00000000E+00  0.00000000E+00
  0.00000000E+00  0.00000000E+00  0.00000000E+00
  0.00000000E+00  0.00000000E+00  0.00000000E+00
  0.00000000E+00  0.00000000E+00  0.00000000E+00
  0.00000000E+00  0.00000000E+00  0.00000000E+00
  0.00000000E+00  0.00000000E+00  0.00000000E+00
  0.00000000E+00  0.00000000E+00  0.00000000E+00
  0.00000000E+00  0.00000000E+00  0.00000000E+00
  0.00000000E+00  0.00000000E+00  0.00000000E+00
  0.00000000E+00  0.00000000E+00  0.00000000E+00
  0.00000000E+00  0.00000000E+00  0.00000000E+00
  0.00000000E+00  0.00000000E+00  0.00000000E+00
  0.00000000E+00  0.00000000E+00  0.00000000E+00
  0.00000000E+00  0.00000000E+00  0.00000000E+00
  0.00000000E+00  0.00000000E+00  0.00000000E+00
  0.00000000E+00  0.00000000E+00  0.00000000E+00
  0.00000000E+00  0.00000000E+00  0.00000000E+00
  0.00000000E+00  0.00000000E+00  0.00000000E+00
  0.00000000E+00  0.00000000E+00  0.00000000E+00
  0.00000000E+00  0.00000000E+00  0.00000000E+00
  0.00000000E+00  0.00000000E+00  0.00000000E+00
  0.00000000E+00  0.00000000E+00  0.00000000E+00
  0.00000000E+00  0.00000000E+00  0.00000000E+00
  0.00000000E+00  0.00000000E+00  0.00000000E+00
  0.00000000E+00  0.00000000E+00  0.00000000E+00
  0.00000000E+00  0.00000000E+00  0.00000000E+00
  0.00000000E+00  0.00000000E+00  0.00000000E+00
  0.00000000E+00  0.00000000E+00  0.00000000E+00
  0.00000000E+00  0.00000000E+00  0.00000000E+00
  0.00000000E+00  0.00000000E+00  0.00000000E+00
  0.00000000E+00  0.00000000E+00  0.00000000E+00
  0.00000000E+00  0.00000000E+00  0.00000000E+00
  0.00000000E+00  0.00000000E+00  0.00000000E+00
  0.00000000E+00  0.00000000E+00  0.00000000E+00
  0.00000000E+00  0.00000000E+00  0.00000000E+00
  0.00000000E+00  0.00000000E+00  0.00000000E+00
  0.00000000E+00  0.00000000E+00  0.00000000E+00
  0.00000000E+00  0.00000000E+00  0.00000000E+00
  0.00000000E+00  0.00000000E+00  0.00000000E+00
  0.00000000E+00  0.00000000E+00  0.00000000E+00
  0.00000000E+00  0.00000000E+00  0.00000000E+00
  0.00000000E+00  0.00000000E+00  0.00000000E+00
  0.00000000E+00  0.00000000E+00  0.00000000E+00
  0.00000000E+00  0.00000000E+00  0.00000000E+00
  0.00000000E+00  0.00000000E+00  0.00000000E+00
  0.00000000E+00  0.00000000E+00  0.00000000E+00
  0.00000000E+00  0.00000000E+00  0.00000000E+00
  0.00000000E+00  0.00000000E+00  0.00000000E+00
  0.00000000E+00  0.00000000E+00  0.00000000E+00
  0.00000000E+00  0.00000000E+00  0.00000000E+00
  0.00000000E+00  0.00000000E+00  0.00000000E+00
  0.00000000E+00  0.00000000E+00  0.00000000E+00
  0.00000000E+00  0.00000000E+00  0.00000000E+00
  0.00000000E+00  0.00000000E+00  0.00000000E+00
  0.00000000E+00  0.00000000E+00  0.00000000E+00
  0.00000000E+00  0.00000000E+00  0.00000000E+00
  0.00000000E+00  0.00000000E+00  0.00000000E+00
  0.00000000E+00  0.00000000E+00  0.00000000E+00
  0.00000000E+00  0.00000000E+00  0.00000000E+00
  0.00000000E+00  0.00000000E+00  0.00000000E+00
  0.00000000E+00  0.00000000E+00  0.00000000E+00
  0.00000000E+00  0.00000000E+00  0.00000000E+00
  0.00000000E+00  0.00000000E+00  0.00000000E+00
  0.00000000E+00  0.00000000E+00  0.00000000E+00
  0.00000000E+00  0.00000000E+00  0.00000000E+00
  0.00000000E+00  0.00000000E+00  0.00000000E+00
  0.00000000E+00  0.00000000E+00  0.00000000E+00
  0.00000000E+00  0.00000000E+00  0.00000000E+00
  0.00000000E+00  0.00000000E+00  0.00000000E+00
  0.00000000E+00  0.00000000E+00  0.00000000E+00
  0.00000000E+00  0.00000000E+00  0.00000000E+00
