hexa_FA0000MA0625Cs0375                 
   1.00000000000000     
    17.6722944716992743    0.0635545901809913    0.3720119433190820
    -8.8007630741904350   14.7337338080351596   -0.6109585235702132
     0.1617652158317323   -0.2250500994081850    7.8484561982972663
   Pb   I    N    C    H    Cs
     8    24     5     5    30     3
Direct
  0.5076234240887777  0.5054005386803946  0.9357927104761503
  0.5086300281690996  0.0051731574301285  0.9575591117399125
  0.0083886740502662  0.5014902419418428  0.9451536009114471
  0.0017878724745266  0.0029182384904272  0.9511019808570496
  0.0062969197908796  0.0016428990720717  0.4487208972924672
  0.0080588229608355  0.5030148818692199  0.4401394895021857
  0.5091191153845499  0.0037274545177613  0.4594186230917305
  0.5087885790913449  0.5036434917721143  0.4383516481048199
  0.4371096491788807  0.1007092263512110  0.2299157054980666
  0.4216128385413115  0.5870237705031642  0.2143137717627662
  0.9420050415290413  0.1087392339503853  0.2336769292271157
  0.9512203642642210  0.6143407499272843  0.2103593644011203
  0.4181823064148985  0.3275316519386539  0.1605334221333189
  0.4255880107429812  0.8305191798208839  0.1979212759745292
  0.9154193171505157  0.3297910161594014  0.1781709709457941
  0.9150798157583842  0.8298695555887694  0.1802614158553759
  0.1752856377984174  0.0747249401024564  0.1884657967271288
  0.1803990121773641  0.5751300612110566  0.1947869927730206
  0.6775188223067850  0.0831634556550798  0.2132828593565395
  0.6764580128017533  0.5897178539878367  0.1833763832599872
  0.0793157642065710  0.4003656397803763  0.6669542855002502
  0.0704900451412395  0.8978346816949786  0.6914157162769288
  0.5956278537124113  0.4210797522699374  0.6727658121696920
  0.5963925936142856  0.9222640282845358  0.6931735354736331
  0.1136160566076711  0.1759202123759610  0.7182774044429074
  0.1069769115962789  0.6773573487374956  0.7161207954557437
  0.6073552955391903  0.1813581964392537  0.7318656221329466
  0.6041445140767450  0.6806313770058032  0.7081802727675723
  0.3382745931677951  0.4201892057099863  0.6862788457392833
  0.3360724901767215  0.9325374884399963  0.7290872703847830
  0.8428120360621320  0.4328650949524282  0.7028466950580704
  0.8384738328538017  0.9349290182651817  0.7003021499763444
  0.1453707778634010  0.8358765082062567  0.0984951083258469
  0.2911328597414667  0.1337422542034707  0.7753683039773892
  0.6218942200614056  0.3143824000892954  0.1241425741441756
  0.6361593048484889  0.8403100685924558  0.0972203644473364
  0.2754779759598980  0.6258706101144110  0.6353982236965173
  0.1964726792713943  0.8593860587332416  0.2595393112229585
  0.3500962147417638  0.1681824074477949  0.6236195292961353
  0.7063023984984373  0.3774382135438942  0.2133204612318267
  0.6894258687995800  0.8520455927766405  0.2498636566441916
  0.3643599687845595  0.6660819934934463  0.7124659466926410
  0.1188265736035703  0.8771300192939356  0.0887646455512797
  0.0932863445296706  0.7689057940624310  0.0955602840537529
  0.1840923906264305  0.8436225826354128  0.9908874999282250
  0.1510207299843822  0.8450247204327278  0.3678762564154383
  0.2277251105397198  0.8183630376117379  0.2608228370067110
  0.2463931698683699  0.9316964026208578  0.2634200606060132
  0.2346305206115362  0.1381789711132489  0.7623148928772224
  0.3214716031441406  0.1704372107084059  0.8871143504968173
  0.2713529811087304  0.0664389472765664  0.7902818167936745
  0.3679477918572411  0.2385699441650664  0.6089839031285625
  0.4089290628357324  0.1639736801735946  0.6427287553613014
  0.3144969457042369  0.1257405204775757  0.5106977009175936
  0.5837499091933962  0.3437948610475886  0.1111927621920128
  0.5820735044583538  0.2556984791254406  0.1892533622008381
  0.6314778921980497  0.2921362461570545  0.0025494193525886
  0.6914253623313752  0.3999476512967927  0.3377554884384129
  0.7419917831905631  0.3417723351277990  0.2298070628823320
  0.7453886098369831  0.4359955617179491  0.1359531876900842
  0.6585866372668390  0.9013191621315593  0.0413787146952251
  0.5706121805863095  0.8175162220748249  0.1303174093646163
  0.6369848679155140  0.7947840751928272  0.0036173064620982
  0.6817316051205983  0.8973560773238064  0.3451259594207056
  0.6654087928457276  0.7856272462260148  0.3012225852513444
  0.7586126494840000  0.8817637024356259  0.2117020293067538
  0.2783369815448545  0.6355489205236655  0.5057313113845592
  0.2383953562966977  0.6530658358290246  0.6909405598605513
  0.2373596328729650  0.5560898533759643  0.6480401111082118
  0.3966581089085041  0.7402322396165385  0.7165892082692684
  0.3567835987744686  0.6425781159557173  0.8417895122687018
  0.4029269785277653  0.6434376000995277  0.6335948022524358
  0.1830046137137153  0.3386772587211355  0.1869091102016835
  0.8229139968333904  0.6666421152947727  0.6898358333039755
  0.8282474510301656  0.1718336863346741  0.6595734434236311
 
  0.00000000E+00  0.00000000E+00  0.00000000E+00
  0.00000000E+00  0.00000000E+00  0.00000000E+00
  0.00000000E+00  0.00000000E+00  0.00000000E+00
  0.00000000E+00  0.00000000E+00  0.00000000E+00
  0.00000000E+00  0.00000000E+00  0.00000000E+00
  0.00000000E+00  0.00000000E+00  0.00000000E+00
  0.00000000E+00  0.00000000E+00  0.00000000E+00
  0.00000000E+00  0.00000000E+00  0.00000000E+00
  0.00000000E+00  0.00000000E+00  0.00000000E+00
  0.00000000E+00  0.00000000E+00  0.00000000E+00
  0.00000000E+00  0.00000000E+00  0.00000000E+00
  0.00000000E+00  0.00000000E+00  0.00000000E+00
  0.00000000E+00  0.00000000E+00  0.00000000E+00
  0.00000000E+00  0.00000000E+00  0.00000000E+00
  0.00000000E+00  0.00000000E+00  0.00000000E+00
  0.00000000E+00  0.00000000E+00  0.00000000E+00
  0.00000000E+00  0.00000000E+00  0.00000000E+00
  0.00000000E+00  0.00000000E+00  0.00000000E+00
  0.00000000E+00  0.00000000E+00  0.00000000E+00
  0.00000000E+00  0.00000000E+00  0.00000000E+00
  0.00000000E+00  0.00000000E+00  0.00000000E+00
  0.00000000E+00  0.00000000E+00  0.00000000E+00
  0.00000000E+00  0.00000000E+00  0.00000000E+00
  0.00000000E+00  0.00000000E+00  0.00000000E+00
  0.00000000E+00  0.00000000E+00  0.00000000E+00
  0.00000000E+00  0.00000000E+00  0.00000000E+00
  0.00000000E+00  0.00000000E+00  0.00000000E+00
  0.00000000E+00  0.00000000E+00  0.00000000E+00
  0.00000000E+00  0.00000000E+00  0.00000000E+00
  0.00000000E+00  0.00000000E+00  0.00000000E+00
  0.00000000E+00  0.00000000E+00  0.00000000E+00
  0.00000000E+00  0.00000000E+00  0.00000000E+00
  0.00000000E+00  0.00000000E+00  0.00000000E+00
  0.00000000E+00  0.00000000E+00  0.00000000E+00
  0.00000000E+00  0.00000000E+00  0.00000000E+00
  0.00000000E+00  0.00000000E+00  0.00000000E+00
  0.00000000E+00  0.00000000E+00  0.00000000E+00
  0.00000000E+00  0.00000000E+00  0.00000000E+00
  0.00000000E+00  0.00000000E+00  0.00000000E+00
  0.00000000E+00  0.00000000E+00  0.00000000E+00
  0.00000000E+00  0.00000000E+00  0.00000000E+00
  0.00000000E+00  0.00000000E+00  0.00000000E+00
  0.00000000E+00  0.00000000E+00  0.00000000E+00
  0.00000000E+00  0.00000000E+00  0.00000000E+00
  0.00000000E+00  0.00000000E+00  0.00000000E+00
  0.00000000E+00  0.00000000E+00  0.00000000E+00
  0.00000000E+00  0.00000000E+00  0.00000000E+00
  0.00000000E+00  0.00000000E+00  0.00000000E+00
  0.00000000E+00  0.00000000E+00  0.00000000E+00
  0.00000000E+00  0.00000000E+00  0.00000000E+00
  0.00000000E+00  0.00000000E+00  0.00000000E+00
  0.00000000E+00  0.00000000E+00  0.00000000E+00
  0.00000000E+00  0.00000000E+00  0.00000000E+00
  0.00000000E+00  0.00000000E+00  0.00000000E+00
  0.00000000E+00  0.00000000E+00  0.00000000E+00
  0.00000000E+00  0.00000000E+00  0.00000000E+00
  0.00000000E+00  0.00000000E+00  0.00000000E+00
  0.00000000E+00  0.00000000E+00  0.00000000E+00
  0.00000000E+00  0.00000000E+00  0.00000000E+00
  0.00000000E+00  0.00000000E+00  0.00000000E+00
  0.00000000E+00  0.00000000E+00  0.00000000E+00
  0.00000000E+00  0.00000000E+00  0.00000000E+00
  0.00000000E+00  0.00000000E+00  0.00000000E+00
  0.00000000E+00  0.00000000E+00  0.00000000E+00
  0.00000000E+00  0.00000000E+00  0.00000000E+00
  0.00000000E+00  0.00000000E+00  0.00000000E+00
  0.00000000E+00  0.00000000E+00  0.00000000E+00
  0.00000000E+00  0.00000000E+00  0.00000000E+00
  0.00000000E+00  0.00000000E+00  0.00000000E+00
  0.00000000E+00  0.00000000E+00  0.00000000E+00
  0.00000000E+00  0.00000000E+00  0.00000000E+00
  0.00000000E+00  0.00000000E+00  0.00000000E+00
  0.00000000E+00  0.00000000E+00  0.00000000E+00
  0.00000000E+00  0.00000000E+00  0.00000000E+00
  0.00000000E+00  0.00000000E+00  0.00000000E+00
