ortho_FA0250MA0750Cs0000                
   1.00000000000000     
    11.3781033756820076    0.0552583391039605    0.4470257217226947
     0.0617650910123625    9.4585733674831136    0.0500329439367729
     0.7566315057292738    0.0763129980931101   18.8488108224998605
   Pb   I    Cs   C    N    H 
     8    24     0     8    10    46
Direct
  0.1718595881334094  0.1023793701974778  0.4379574165084562
  0.1683278372197493  0.5913181517091318  0.4473819434450134
  0.8500037000047297  0.3526836795114111  0.5636139797743640
  0.8546494542418519  0.8548988293582467  0.5608763813706631
  0.3475476938377772  0.3928462410751207  0.9434078953010049
  0.3551201655120858  0.8845069231038074  0.9368518840660716
  0.6499984052511645  0.1490675918548237  0.0504777125144827
  0.6570706600950416  0.6416636669748083  0.0584254045833636
  0.1760208151743823  0.1314048814555689  0.9994235621129641
  0.1757893931373813  0.6448024885355054  0.0041298897087573
  0.8344606228654334  0.3915816455128988  0.9889276334373903
  0.8279474079029389  0.8988882580255764  0.9937256006919069
  0.3384556440153279  0.3390891618931615  0.4969435841840942
  0.3470323447524964  0.8522464452406342  0.4916587561434534
  0.6883133753730762  0.1069862797366657  0.5126506972905681
  0.6860746772570284  0.6121715555027293  0.5160784545766246
  0.3051125678516537  0.1038421696612394  0.2871837077685017
  0.3151044420502234  0.5876935271861967  0.3004985627685400
  0.7348120481938638  0.3444158410771149  0.7188589188156536
  0.7332074185156614  0.8607777062591317  0.7175925571471348
  0.2492457898508882  0.3811998265933302  0.7952703384063157
  0.2542072471102125  0.8784921448167631  0.7914481395507011
  0.7693908372501878  0.1625478367220398  0.1988409804910330
  0.7596419794489953  0.6458681380373185  0.2048638424650610
  0.0391279033206713  0.1023964826385909  0.6045857288932394
  0.0307208440488749  0.5999432352326958  0.6113034587777182
  0.9905143167309838  0.3573432779470037  0.3978065453929249
  0.9925439441341530  0.8463278340029542  0.3980798236813023
  0.4653583452045292  0.3975718696645238  0.1049662196793211
  0.4712232987640398  0.8931822930231929  0.1026116321795009
  0.5397605285499079  0.1420813351656826  0.8948665036821096
  0.5444561196911782  0.6294078343349966  0.8971363986262527
  0.0638373948625819  0.8664530039228306  0.1922438332753460
  0.4390488087675489  0.6553713179532850  0.6588968360801589
  0.6354121962110765  0.8994999290086274  0.3468971785958199
  0.0923713331672473  0.4317745037239843  0.1861234603055815
  0.9864232814320831  0.1493987767732550  0.8229202009502877
  0.6166435939597285  0.3978923621165585  0.3597876702590865
  0.4625552203333106  0.1483814287630994  0.6730475779199766
  0.9802963523441510  0.6480253740394919  0.8410080753083241
  0.1705480123144827  0.8122769231695799  0.1845155575758020
  0.0114867516095613  0.9345083562270916  0.1423210955323423
  0.5049848820930060  0.6057459020661834  0.7074950942030341
  0.3342106525044926  0.6080895587808849  0.6478480426038677
  0.5319657952511816  0.8436758233720074  0.3131669839457959
  0.0316717491213413  0.3452128826586988  0.1347681144169578
  0.8631257085257390  0.0979115032979257  0.8302670140611051
  0.5418712601612387  0.3313411414173651  0.3085469009720745
  0.3522152625101586  0.0936130358296397  0.6464718575635863
  0.8671071956026587  0.5944597718433786  0.8182917728203031
  0.0149286446011878  0.8541433545899200  0.2442514682442546
  0.2070466529099084  0.7627138039916396  0.2265276006304807
  0.2227891344375184  0.8197073661310945  0.1379654190338249
  0.0511785600071814  0.9512878438069459  0.0923006404262145
  0.9268065581917621  0.9713861516282916  0.1527174267397646
  0.4745753290678521  0.7406764378849754  0.6243927945535914
  0.5850648207907232  0.6512951589868513  0.7131276790920675
  0.4772052155646178  0.5271713325405474  0.7421394005913811
  0.2930489634859540  0.5344020554439513  0.6814327094096561
  0.2868946959259411  0.6562863261887322  0.6104516524466393
  0.4816986682336281  0.9233756370543527  0.2908974777970728
  0.4734655454960480  0.7926014944126570  0.3495819121515532
  0.5596095850209089  0.7719783940508247  0.2735990302981866
  0.6067117904091204  0.9865304620635400  0.3822318195612645
  0.6734701761773267  0.8147128160431786  0.3781003998630867
  0.7002490576748818  0.9358724827580051  0.3048821031011447
  0.9514902934345818  0.3049401065032116  0.1571173710672523
  0.0836933521128895  0.2603531342499746  0.1157355622118350
  0.0123947156739256  0.4026473950996006  0.0898789766970339
  0.0919893342987087  0.3748446070278970  0.2369923184755089
  0.1831543449617622  0.4503029033879409  0.1647120961322991
  0.0441288578312418  0.5320374392111826  0.1933518914164550
  0.8040337616397965  0.1785459412999549  0.8189931560981769
  0.8404407162074563  0.0565819142781758  0.8809557211808590
  0.8480852986330069  0.0188518608365975  0.7938393995351394
  0.9933364865238741  0.2401819296399702  0.8578285713946622
  0.0463348221706551  0.0649414155861154  0.8382394234762389
  0.0086164626793648  0.1798358531586703  0.7673165764944763
  0.4884853667698044  0.4064522472684580  0.2856077112817925
  0.4829189999342750  0.2579912960824620  0.3318227573328534
  0.5939448769092560  0.2803986309894388  0.2682364639172627
  0.5595011050705225  0.4527341181375898  0.4002795749403786
  0.6679020360893236  0.3156423824914902  0.3851275116710998
  0.6759058067836697  0.4721397280606902  0.3302919312551064
  0.2984214638338418  0.1744404547538831  0.6300020212362211
  0.3053248555835985  0.0353187864025968  0.6868855884896173
  0.3682964642443520  0.0279930051979434  0.6026518342545327
  0.4380487232858875  0.2122474845074202  0.7201745581298183
  0.5183070602086736  0.0590205369721480  0.6872790505149661
  0.5090022612126320  0.2116873558091473  0.6310934793834342
  0.8207190789390721  0.6732495513349467  0.7921887732184612
  0.8133301871241049  0.5578658415366332  0.8614052912136894
  0.8765206083705169  0.5111060618214084  0.7825029354447857
  0.9607656135925530  0.7345564051984681  0.8785166241641249
  0.0263994541828217  0.5629692432768387  0.8675121801321428
  0.0348907248607679  0.6853599043035069  0.7943558283687864
 
  0.00000000E+00  0.00000000E+00  0.00000000E+00
  0.00000000E+00  0.00000000E+00  0.00000000E+00
  0.00000000E+00  0.00000000E+00  0.00000000E+00
  0.00000000E+00  0.00000000E+00  0.00000000E+00
  0.00000000E+00  0.00000000E+00  0.00000000E+00
  0.00000000E+00  0.00000000E+00  0.00000000E+00
  0.00000000E+00  0.00000000E+00  0.00000000E+00
  0.00000000E+00  0.00000000E+00  0.00000000E+00
  0.00000000E+00  0.00000000E+00  0.00000000E+00
  0.00000000E+00  0.00000000E+00  0.00000000E+00
  0.00000000E+00  0.00000000E+00  0.00000000E+00
  0.00000000E+00  0.00000000E+00  0.00000000E+00
  0.00000000E+00  0.00000000E+00  0.00000000E+00
  0.00000000E+00  0.00000000E+00  0.00000000E+00
  0.00000000E+00  0.00000000E+00  0.00000000E+00
  0.00000000E+00  0.00000000E+00  0.00000000E+00
  0.00000000E+00  0.00000000E+00  0.00000000E+00
  0.00000000E+00  0.00000000E+00  0.00000000E+00
  0.00000000E+00  0.00000000E+00  0.00000000E+00
  0.00000000E+00  0.00000000E+00  0.00000000E+00
  0.00000000E+00  0.00000000E+00  0.00000000E+00
  0.00000000E+00  0.00000000E+00  0.00000000E+00
  0.00000000E+00  0.00000000E+00  0.00000000E+00
  0.00000000E+00  0.00000000E+00  0.00000000E+00
  0.00000000E+00  0.00000000E+00  0.00000000E+00
  0.00000000E+00  0.00000000E+00  0.00000000E+00
  0.00000000E+00  0.00000000E+00  0.00000000E+00
  0.00000000E+00  0.00000000E+00  0.00000000E+00
  0.00000000E+00  0.00000000E+00  0.00000000E+00
  0.00000000E+00  0.00000000E+00  0.00000000E+00
  0.00000000E+00  0.00000000E+00  0.00000000E+00
  0.00000000E+00  0.00000000E+00  0.00000000E+00
  0.00000000E+00  0.00000000E+00  0.00000000E+00
  0.00000000E+00  0.00000000E+00  0.00000000E+00
  0.00000000E+00  0.00000000E+00  0.00000000E+00
  0.00000000E+00  0.00000000E+00  0.00000000E+00
  0.00000000E+00  0.00000000E+00  0.00000000E+00
  0.00000000E+00  0.00000000E+00  0.00000000E+00
  0.00000000E+00  0.00000000E+00  0.00000000E+00
  0.00000000E+00  0.00000000E+00  0.00000000E+00
  0.00000000E+00  0.00000000E+00  0.00000000E+00
  0.00000000E+00  0.00000000E+00  0.00000000E+00
  0.00000000E+00  0.00000000E+00  0.00000000E+00
  0.00000000E+00  0.00000000E+00  0.00000000E+00
  0.00000000E+00  0.00000000E+00  0.00000000E+00
  0.00000000E+00  0.00000000E+00  0.00000000E+00
  0.00000000E+00  0.00000000E+00  0.00000000E+00
  0.00000000E+00  0.00000000E+00  0.00000000E+00
  0.00000000E+00  0.00000000E+00  0.00000000E+00
  0.00000000E+00  0.00000000E+00  0.00000000E+00
  0.00000000E+00  0.00000000E+00  0.00000000E+00
  0.00000000E+00  0.00000000E+00  0.00000000E+00
  0.00000000E+00  0.00000000E+00  0.00000000E+00
  0.00000000E+00  0.00000000E+00  0.00000000E+00
  0.00000000E+00  0.00000000E+00  0.00000000E+00
  0.00000000E+00  0.00000000E+00  0.00000000E+00
  0.00000000E+00  0.00000000E+00  0.00000000E+00
  0.00000000E+00  0.00000000E+00  0.00000000E+00
  0.00000000E+00  0.00000000E+00  0.00000000E+00
  0.00000000E+00  0.00000000E+00  0.00000000E+00
  0.00000000E+00  0.00000000E+00  0.00000000E+00
  0.00000000E+00  0.00000000E+00  0.00000000E+00
  0.00000000E+00  0.00000000E+00  0.00000000E+00
  0.00000000E+00  0.00000000E+00  0.00000000E+00
  0.00000000E+00  0.00000000E+00  0.00000000E+00
  0.00000000E+00  0.00000000E+00  0.00000000E+00
  0.00000000E+00  0.00000000E+00  0.00000000E+00
  0.00000000E+00  0.00000000E+00  0.00000000E+00
  0.00000000E+00  0.00000000E+00  0.00000000E+00
  0.00000000E+00  0.00000000E+00  0.00000000E+00
  0.00000000E+00  0.00000000E+00  0.00000000E+00
  0.00000000E+00  0.00000000E+00  0.00000000E+00
  0.00000000E+00  0.00000000E+00  0.00000000E+00
  0.00000000E+00  0.00000000E+00  0.00000000E+00
  0.00000000E+00  0.00000000E+00  0.00000000E+00
  0.00000000E+00  0.00000000E+00  0.00000000E+00
  0.00000000E+00  0.00000000E+00  0.00000000E+00
  0.00000000E+00  0.00000000E+00  0.00000000E+00
  0.00000000E+00  0.00000000E+00  0.00000000E+00
  0.00000000E+00  0.00000000E+00  0.00000000E+00
  0.00000000E+00  0.00000000E+00  0.00000000E+00
  0.00000000E+00  0.00000000E+00  0.00000000E+00
  0.00000000E+00  0.00000000E+00  0.00000000E+00
  0.00000000E+00  0.00000000E+00  0.00000000E+00
  0.00000000E+00  0.00000000E+00  0.00000000E+00
  0.00000000E+00  0.00000000E+00  0.00000000E+00
  0.00000000E+00  0.00000000E+00  0.00000000E+00
  0.00000000E+00  0.00000000E+00  0.00000000E+00
  0.00000000E+00  0.00000000E+00  0.00000000E+00
  0.00000000E+00  0.00000000E+00  0.00000000E+00
  0.00000000E+00  0.00000000E+00  0.00000000E+00
  0.00000000E+00  0.00000000E+00  0.00000000E+00
  0.00000000E+00  0.00000000E+00  0.00000000E+00
  0.00000000E+00  0.00000000E+00  0.00000000E+00
  0.00000000E+00  0.00000000E+00  0.00000000E+00
  0.00000000E+00  0.00000000E+00  0.00000000E+00
