ortho_FA0000MA0250Cs0750                
   1.00000000000000     
    10.9952443096192685    0.0028807161976192    0.0330140936909031
     0.0029873841434845    9.7013567365355495    0.0036603483556076
     0.0552066141435324    0.0059014924519540   18.3218987210966304
   Pb   I    Cs   C    N    H 
     8    24     6     2     2    12
Direct
  0.1711168977713151  0.1244705960211181  0.4419267355924504
  0.1690205266002613  0.6264222149390749  0.4426369994212950
  0.8425148181599421  0.3717300024499093  0.5620040261821918
  0.8438285121043594  0.8783314394436493  0.5595764410706016
  0.3421347492315711  0.3738795441642831  0.9436538761832559
  0.3403887296475915  0.8698862915568244  0.9434355200171993
  0.6614520767428647  0.1209505722680319  0.0574588646274063
  0.6595347384677553  0.6263137492824029  0.0579060931944569
  0.1659937220337431  0.1261899869347788  0.0026906170418176
  0.1642481170685721  0.6196427086854328  0.0016335399743961
  0.8233040349250652  0.3752334923806071  0.9888345875072732
  0.8362676185175958  0.8732093984463012  0.9977480156049185
  0.3378247676845534  0.3770581761780505  0.5052481760803541
  0.3347665646175910  0.8727885598335929  0.5095127902274746
  0.6680142242597285  0.1254353099563514  0.5000000263593903
  0.6833594579802853  0.6248204496451453  0.4915553156066492
  0.3080054029396823  0.1150351677687139  0.2923443788519259
  0.3155639259549392  0.6386682259839035  0.2982167076048506
  0.7239624597051066  0.3650582780659455  0.7176142621593515
  0.7261973865260228  0.8844915144845993  0.7139026325646879
  0.2101862484656662  0.3626714109964020  0.7915327127730762
  0.2097544492474977  0.8850644873730595  0.7917553239715228
  0.8006236018770211  0.1194063004474702  0.2078350738874861
  0.7951106178260954  0.6149093337072671  0.2061128623050011
  0.0319653233668364  0.1246784372258478  0.6081493151637681
  0.0266670807203773  0.6250850102225478  0.6105476697492824
  0.9799911780831013  0.3714904870336342  0.3984032693313688
  0.9823356508812581  0.8777494124650241  0.3914320432163272
  0.4767857716081193  0.3728976963142018  0.1079399401607221
  0.4744634103785065  0.8748430085543506  0.1092738808106427
  0.5255210145371901  0.1186614692430145  0.8936460241918981
  0.5229306986039395  0.6272487666929518  0.8909338867039770
  0.4395378866023568  0.1255343259256211  0.6735494103614680
  0.5777155201730626  0.3736833960696453  0.3288694538570305
  0.5915018154864353  0.8764662646886924  0.3312736036169430
  0.0856257417455570  0.8659678930792274  0.1797003696321795
  0.9284623028040667  0.1229832429479577  0.8286403827713335
  0.9251742033956309  0.6256598057341881  0.8244347549192025
  0.1066255726561745  0.4118591312934637  0.1972063018125289
  0.4723355704354483  0.6266847994554610  0.6623518377404657
  0.0300848659670434  0.3484913175694078  0.1396561628878749
  0.3408951546152535  0.6242583406180059  0.6813685604750254
  0.9611625499192812  0.4142062599506288  0.1229731972102456
 -0.0145873902638684  0.2603637467222712  0.1584780864484207
  0.0802359436478760  0.3210307717048800  0.0935975980574749
  0.0524529909994445  0.4198582238470928  0.2474509226001611
  0.1866593649789987  0.3470740961730043  0.2068516598541032
  0.1356183594355234  0.5139803739666989  0.1788101935789369
  0.2862724696970594  0.6251778366697945  0.6355391126240167
  0.3145343366540070  0.7091128062962921  0.7131970803977983
  0.3161740111150803  0.5372699460275618  0.7119454844601749
  0.4920266484277110  0.7204671367624496  0.6311597055161712
  0.5259459715267382  0.6246259994619890  0.7124847799577904
  0.4938312095526888  0.5369906513717627  0.6284238788542743
 
  0.00000000E+00  0.00000000E+00  0.00000000E+00
  0.00000000E+00  0.00000000E+00  0.00000000E+00
  0.00000000E+00  0.00000000E+00  0.00000000E+00
  0.00000000E+00  0.00000000E+00  0.00000000E+00
  0.00000000E+00  0.00000000E+00  0.00000000E+00
  0.00000000E+00  0.00000000E+00  0.00000000E+00
  0.00000000E+00  0.00000000E+00  0.00000000E+00
  0.00000000E+00  0.00000000E+00  0.00000000E+00
  0.00000000E+00  0.00000000E+00  0.00000000E+00
  0.00000000E+00  0.00000000E+00  0.00000000E+00
  0.00000000E+00  0.00000000E+00  0.00000000E+00
  0.00000000E+00  0.00000000E+00  0.00000000E+00
  0.00000000E+00  0.00000000E+00  0.00000000E+00
  0.00000000E+00  0.00000000E+00  0.00000000E+00
  0.00000000E+00  0.00000000E+00  0.00000000E+00
  0.00000000E+00  0.00000000E+00  0.00000000E+00
  0.00000000E+00  0.00000000E+00  0.00000000E+00
  0.00000000E+00  0.00000000E+00  0.00000000E+00
  0.00000000E+00  0.00000000E+00  0.00000000E+00
  0.00000000E+00  0.00000000E+00  0.00000000E+00
  0.00000000E+00  0.00000000E+00  0.00000000E+00
  0.00000000E+00  0.00000000E+00  0.00000000E+00
  0.00000000E+00  0.00000000E+00  0.00000000E+00
  0.00000000E+00  0.00000000E+00  0.00000000E+00
  0.00000000E+00  0.00000000E+00  0.00000000E+00
  0.00000000E+00  0.00000000E+00  0.00000000E+00
  0.00000000E+00  0.00000000E+00  0.00000000E+00
  0.00000000E+00  0.00000000E+00  0.00000000E+00
  0.00000000E+00  0.00000000E+00  0.00000000E+00
  0.00000000E+00  0.00000000E+00  0.00000000E+00
  0.00000000E+00  0.00000000E+00  0.00000000E+00
  0.00000000E+00  0.00000000E+00  0.00000000E+00
  0.00000000E+00  0.00000000E+00  0.00000000E+00
  0.00000000E+00  0.00000000E+00  0.00000000E+00
  0.00000000E+00  0.00000000E+00  0.00000000E+00
  0.00000000E+00  0.00000000E+00  0.00000000E+00
  0.00000000E+00  0.00000000E+00  0.00000000E+00
  0.00000000E+00  0.00000000E+00  0.00000000E+00
  0.00000000E+00  0.00000000E+00  0.00000000E+00
  0.00000000E+00  0.00000000E+00  0.00000000E+00
  0.00000000E+00  0.00000000E+00  0.00000000E+00
  0.00000000E+00  0.00000000E+00  0.00000000E+00
  0.00000000E+00  0.00000000E+00  0.00000000E+00
  0.00000000E+00  0.00000000E+00  0.00000000E+00
  0.00000000E+00  0.00000000E+00  0.00000000E+00
  0.00000000E+00  0.00000000E+00  0.00000000E+00
  0.00000000E+00  0.00000000E+00  0.00000000E+00
  0.00000000E+00  0.00000000E+00  0.00000000E+00
  0.00000000E+00  0.00000000E+00  0.00000000E+00
  0.00000000E+00  0.00000000E+00  0.00000000E+00
  0.00000000E+00  0.00000000E+00  0.00000000E+00
  0.00000000E+00  0.00000000E+00  0.00000000E+00
  0.00000000E+00  0.00000000E+00  0.00000000E+00
  0.00000000E+00  0.00000000E+00  0.00000000E+00
